
bond_style  harmonic
dielectric  80.0

set type 25 charge 0.75
Setting atom values ...
  0 settings made for charge
set type 27 charge -0.75
Setting atom values ...
  0 settings made for charge
set type 28 charge -0.75
Setting atom values ...
  0 settings made for charge
set type 36 charge 0.375
Setting atom values ...
  0 settings made for charge
set type 23 charge 0.75
Setting atom values ...
  0 settings made for charge

set type 5 charge 0.75
Setting atom values ...
  1 settings made for charge
set type 7 charge -0.75
Setting atom values ...
  0 settings made for charge
set type 3  charge 0.75
Setting atom values ...
  0 settings made for charge
set type 16 charge 0.375
Setting atom values ...
  0 settings made for charge
set type 8  charge -0.75
Setting atom values ...
  1 settings made for charge

bond_coeff          1     9.600     3.81
#bond_coeff          2     9.600     5.00

pair_style  hybrid/overlay wf/cut 25.0 coul/debye 0.126 0.0

pair_coeff 30 30 wf/cut 0.004751 6.45565 1 3 19.367
pair_coeff 1 1 wf/cut 0.039564 6.467950871367303 1 2 19.403852614101908
pair_coeff 1 2 wf/cut 0.068017 5.576178403526399 1 2 16.728535210579196
pair_coeff 1 3 wf/cut 0.032686 6.5677835361737795 1 2 19.70335060852134
pair_coeff 1 4 wf/cut 0.035161 6.178228033595178 1 2 18.534684100785533
pair_coeff 1 5 wf/cut 0.171515 6.643964892255349 1 2 19.93189467676605
pair_coeff 1 6 wf/cut 0.044522 5.868502140125925 1 2 17.605506420377775
pair_coeff 1 7 wf/cut 0.073172 6.14145960937047 1 2 18.424378828111408
pair_coeff 1 8 wf/cut 0.077577 6.318176525841784 1 2 18.95452957752535
pair_coeff 1 9 wf/cut 0.229375 6.590037435016079 1 2 19.770112305048237
pair_coeff 1 10 wf/cut 0.022571 6.320571545407576 1 2 18.96171463622273
pair_coeff 1 11 wf/cut 0.025281 6.483443734640188 1 2 19.450331203920562
pair_coeff 1 12 wf/cut 0.120006 6.36518785664648 1 2 19.09556356993944
pair_coeff 1 13 wf/cut 0.294931 6.755728450520449 1 2 20.267185351561345
pair_coeff 1 14 wf/cut 0.215603 6.538208522101147 1 2 19.61462556630344
pair_coeff 1 15 wf/cut 0.050582 5.938940625510648 1 2 17.816821876531947
pair_coeff 1 16 wf/cut 0.203491 6.392507281968151 1 2 19.177521845904455
pair_coeff 1 17 wf/cut 0.116706 6.188018494610175 1 2 18.564055483830522
pair_coeff 1 18 wf/cut 0.059120 6.1344640513130955 1 2 18.403392153939286
pair_coeff 1 19 wf/cut 0.054437 6.094294827619396 1 2 18.282884482858186
pair_coeff 1 20 wf/cut 0.019979 6.496393035701747 1 2 19.48917910710524
pair_coeff 1 21 wf/cut 0.033511 6.472967463905089 1 2 19.418902391715267
pair_coeff 1 22 wf/cut 0.053464 5.579884038976499 1 2 16.7396521169295
pair_coeff 1 23 wf/cut 0.028840 6.572908139010548 1 2 19.718724417031645
pair_coeff 1 24 wf/cut 0.030487 6.183085528083141 1 2 18.549256584249424
pair_coeff 1 25 wf/cut 0.126057 6.646517494086263 1 2 19.93955248225879
pair_coeff 1 26 wf/cut 0.037087 5.873266644604083 1 2 17.61979993381225
pair_coeff 1 27 wf/cut 0.057192 6.145621669676131 1 2 18.43686500902839
pair_coeff 1 28 wf/cut 0.060220 6.322430858089529 1 2 18.967292574268587
pair_coeff 1 29 wf/cut 0.166559 6.592040039094211 1 2 19.776120117282634
pair_coeff 1 30 wf/cut 0.022157 6.322886509244067 1 2 18.9686595277322
pair_coeff 1 31 wf/cut 0.023649 6.486360198534797 1 2 19.45908059560439
pair_coeff 1 32 wf/cut 0.089698 6.368425539955892 1 2 19.105276619867674
pair_coeff 1 33 wf/cut 0.212282 6.7573688868401405 1 2 20.27210666052042
pair_coeff 1 34 wf/cut 0.156918 6.5402914181442595 1 2 19.620874254432778
pair_coeff 1 35 wf/cut 0.041217 5.943583554201671 1 2 17.830750662605013
pair_coeff 1 36 wf/cut 0.148384 6.394666170151445 1 2 19.183998510454334
pair_coeff 1 37 wf/cut 0.087498 6.191219964195186 1 2 18.57365989258556
pair_coeff 1 38 wf/cut 0.047275 6.139108925912469 1 2 18.417326777737408
pair_coeff 1 39 wf/cut 0.043970 6.098946985727069 1 2 18.296840957181207
pair_coeff 1 40 wf/cut 0.019979 6.496393035701747 1 2 19.48917910710524
pair_coeff 2 2 wf/cut 0.096470 4.695110240398406 1 2 14.085330721195216
pair_coeff 2 3 wf/cut 0.061139 5.671338290828199 1 2 17.014014872484598
pair_coeff 2 4 wf/cut 0.063614 5.284424971479424 1 2 15.85327491443827
pair_coeff 2 5 wf/cut 0.199968 5.766386193227936 1 2 17.299158579683805
pair_coeff 2 6 wf/cut 0.072975 4.980134552672144 1 2 14.940403658016432
pair_coeff 2 7 wf/cut 0.101625 5.2592548053112145 1 2 15.777764415933643
pair_coeff 2 8 wf/cut 0.106030 5.436374588857539 1 2 16.30912376657262
pair_coeff 2 9 wf/cut 0.257828 5.7131654456309935 1 2 17.139496336892982
pair_coeff 2 10 wf/cut 0.051024 5.412393397897493 1 2 16.23718019369248
pair_coeff 2 11 wf/cut 0.053734 5.578930397816427 1 2 16.736791193449278
pair_coeff 2 12 wf/cut 0.148459 5.486299347261422 1 2 16.458898041784266
pair_coeff 2 13 wf/cut 0.323384 5.879238002082802 1 2 17.63771400624841
pair_coeff 2 14 wf/cut 0.244056 5.661218822883835 1 2 16.983656468651503
pair_coeff 2 15 wf/cut 0.079035 5.052524512175333 1 2 15.157573536526
pair_coeff 2 16 wf/cut 0.231944 5.515411637199979 1 2 16.54623491159994
pair_coeff 2 17 wf/cut 0.145159 5.3090163197417555 1 2 15.927048959225267
pair_coeff 2 18 wf/cut 0.087573 5.249990542761369 1 2 15.749971628284106
pair_coeff 2 19 wf/cut 0.082890 5.208722790322849 1 2 15.626168370968546
pair_coeff 2 20 wf/cut 0.048432 5.580329252471181 1 2 16.740987757413542
pair_coeff 2 21 wf/cut 0.061964 5.577215175821233 1 2 16.731645527463698
pair_coeff 2 22 wf/cut 0.081917 4.696396560631559 1 2 14.089189681894677
pair_coeff 2 23 wf/cut 0.057293 5.67211261999139 1 2 17.016337859974172
pair_coeff 2 24 wf/cut 0.058940 5.285212528563172 1 2 15.855637585689518
pair_coeff 2 25 wf/cut 0.154510 5.767769508320207 1 2 17.30330852496062
pair_coeff 2 26 wf/cut 0.065540 4.981125987510791 1 2 14.943377962532374
pair_coeff 2 27 wf/cut 0.085645 5.260651874488179 1 2 15.781955623464537
pair_coeff 2 28 wf/cut 0.088673 5.437809343618614 1 2 16.313428030855842
pair_coeff 2 29 wf/cut 0.195012 5.714358676536591 1 2 17.143076029609773
pair_coeff 2 30 wf/cut 0.050610 5.412530359493723 1 2 16.23759107848117
pair_coeff 2 31 wf/cut 0.052102 5.579325356579805 1 2 16.737976069739414
pair_coeff 2 32 wf/cut 0.118151 5.487774115196598 1 2 16.463322345589795
pair_coeff 2 33 wf/cut 0.240735 5.880303283956183 1 2 17.64090985186855
pair_coeff 2 34 wf/cut 0.185371 5.662447134978403 1 2 16.987341404935208
pair_coeff 2 35 wf/cut 0.069670 5.053695239348068 1 2 15.161085718044204
pair_coeff 2 36 wf/cut 0.176837 5.516638738971832 1 2 16.549916216915495
pair_coeff 2 37 wf/cut 0.115951 5.310437234694913 1 2 15.931311704084738
pair_coeff 2 38 wf/cut 0.075728 5.251325825579545 1 2 15.753977476738633
pair_coeff 2 39 wf/cut 0.072423 5.20997288304294 1 2 15.629918649128818
pair_coeff 2 40 wf/cut 0.048432 5.580329252471181 1 2 16.740987757413542
pair_coeff 3 3 wf/cut 0.019117 6.671340524039856 1 2 20.014021572119567
pair_coeff 3 4 wf/cut 0.028283 6.279399881910995 1 2 18.838199645732985
pair_coeff 3 5 wf/cut 0.121938 6.73819193132635 1 2 20.21457579397905
pair_coeff 3 6 wf/cut 0.037644 5.966686347623176 1 2 17.90005904286953
pair_coeff 3 7 wf/cut 0.000493 6.236987380482699 1 2 18.710962141448096
pair_coeff 3 8 wf/cut 0.000526 6.413575163938182 1 2 19.240725491814544
pair_coeff 3 9 wf/cut 0.102701 6.684083406034673 1 2 20.052250218104017
pair_coeff 3 10 wf/cut 0.015693 6.433541011383533 1 2 19.3006230341506
pair_coeff 3 11 wf/cut 0.018403 6.592557574989555 1 2 19.777672724968664
pair_coeff 3 12 wf/cut 0.113128 6.4596938105680355 1 2 19.37908143170411
pair_coeff 3 13 wf/cut 0.104796 6.849685211660051 1 2 20.549055634980153
pair_coeff 3 14 wf/cut 0.115276 6.632280360446061 1 2 19.896841081338184
pair_coeff 3 15 wf/cut 0.043704 6.036179732070119 1 2 18.10853919621036
pair_coeff 3 16 wf/cut 0.087370 6.4866030031823305 1 2 19.45980900954699
pair_coeff 3 17 wf/cut 0.109828 6.2825460057664415 1 2 18.847638017299325
pair_coeff 3 18 wf/cut 0.052242 6.2310615597122725 1 2 18.693184679136817
pair_coeff 3 19 wf/cut 0.047559 6.191153675456269 1 2 18.573461026368804
pair_coeff 3 20 wf/cut 0.013101 6.617996254538358 1 2 19.853988763615074
pair_coeff 3 21 wf/cut 0.026633 6.575236990212751 1 2 19.725710970638254
pair_coeff 3 22 wf/cut 0.046586 5.67591070475063 1 2 17.02773211425189
pair_coeff 3 23 wf/cut 0.016267 6.6786690213492745 1 2 20.036007064047823
pair_coeff 3 24 wf/cut 0.023609 6.28697050091405 1 2 18.860911502742148
pair_coeff 3 25 wf/cut 0.088471 6.7410021187479785 1 2 20.223006356243935
pair_coeff 3 26 wf/cut 0.030209 5.973496417353158 1 2 17.920489252059475
pair_coeff 3 27 wf/cut 0.000375 6.242202340571064 1 2 18.726607021713193
pair_coeff 3 28 wf/cut 0.000395 6.41884518513886 1 2 19.25653555541658
pair_coeff 3 29 wf/cut 0.087295 6.686244113621416 1 2 20.058732340864246
pair_coeff 3 30 wf/cut 0.015279 6.438064853494475 1 2 19.314194560483426
pair_coeff 3 31 wf/cut 0.016771 6.597859600272992 1 2 19.793578800818977
pair_coeff 3 32 wf/cut 0.082820 6.463434808995108 1 2 19.390304426985324
pair_coeff 3 33 wf/cut 0.089077 6.851438991432198 1 2 20.554316974296594
pair_coeff 3 34 wf/cut 0.097985 6.634536462444846 1 2 19.903609387334537
pair_coeff 3 35 wf/cut 0.034339 6.042553594266142 1 2 18.127660782798426
pair_coeff 3 36 wf/cut 0.062880 6.488951472342971 1 2 19.466854417028912
pair_coeff 3 37 wf/cut 0.080620 6.286259565568102 1 2 18.858778696704306
pair_coeff 3 38 wf/cut 0.040397 6.23694969931501 1 2 18.71084909794503
pair_coeff 3 39 wf/cut 0.037092 6.197406382364393 1 2 18.59221914709318
pair_coeff 3 40 wf/cut 0.013101 6.617996254538358 1 2 19.853988763615074
pair_coeff 4 4 wf/cut 0.030758 5.8890615748048605 1 2 17.667184724414582
pair_coeff 4 5 wf/cut 0.167112 6.352015695367313 1 2 19.056047086101938
pair_coeff 4 6 wf/cut 0.040119 5.577947754246859 1 2 16.733843262740578
pair_coeff 4 7 wf/cut 0.068769 5.849866323299111 1 2 17.549598969897332
pair_coeff 4 8 wf/cut 0.073174 6.026541387517959 1 2 18.079624162553877
pair_coeff 4 9 wf/cut 0.224972 6.298063007043266 1 2 18.894189021129797
pair_coeff 4 10 wf/cut 0.018168 6.03696547344559 1 2 18.11089642033677
pair_coeff 4 11 wf/cut 0.020878 6.198088878491606 1 2 18.594266635474817
pair_coeff 4 12 wf/cut 0.115603 6.073287961608412 1 2 18.219863884825237
pair_coeff 4 13 wf/cut 0.290527 6.463775207339586 1 2 19.39132562201876
pair_coeff 4 14 wf/cut 0.211200 6.246251077325644 1 2 18.73875323197693
pair_coeff 4 15 wf/cut 0.046179 5.648007650359314 1 2 16.94402295107794
pair_coeff 4 16 wf/cut 0.199088 6.1005286446452045 1 2 18.301585933935613
pair_coeff 4 17 wf/cut 0.112303 5.896099182190375 1 2 17.688297546571125
pair_coeff 4 18 wf/cut 0.054717 5.84319611761197 1 2 17.52958835283591
pair_coeff 4 19 wf/cut 0.050034 5.803211551983609 1 2 17.40963465595083
pair_coeff 4 20 wf/cut 0.015576 6.214617146494642 1 2 18.643851439483925
pair_coeff 4 21 wf/cut 0.029108 6.184377266229273 1 2 18.55313179868782
pair_coeff 4 22 wf/cut 0.049061 5.288433024843104 1 2 15.865299074529311
pair_coeff 4 23 wf/cut 0.024437 6.285985931141882 1 2 18.857957793425648
pair_coeff 4 24 wf/cut 0.026084 5.895181038887271 1 2 17.685543116661812
pair_coeff 4 25 wf/cut 0.121654 6.3546176961456355 1 2 19.063853088436908
pair_coeff 4 26 wf/cut 0.032684 5.583620888610048 1 2 16.75086266583014
pair_coeff 4 27 wf/cut 0.052789 5.854435916763915 1 2 17.563307750291745
pair_coeff 4 28 wf/cut 0.055817 6.031184910048361 1 2 18.093554730145083
pair_coeff 4 29 wf/cut 0.162155 6.300073473520442 1 2 18.900220420561325
pair_coeff 4 30 wf/cut 0.017754 6.038590687548953 1 2 18.115772062646858
pair_coeff 4 31 wf/cut 0.019246 6.20213243224441 1 2 18.606397296733228
pair_coeff 4 32 wf/cut 0.085295 6.076667470375622 1 2 18.230002411126865
pair_coeff 4 33 wf/cut 0.207879 6.4653998696548625 1 2 19.396199608964587
pair_coeff 4 34 wf/cut 0.152515 6.248347277402027 1 2 18.74504183220608
pair_coeff 4 35 wf/cut 0.036814 5.653400669933968 1 2 16.960202009801904
pair_coeff 4 36 wf/cut 0.143981 6.1027057764377375 1 2 18.308117329313212
pair_coeff 4 37 wf/cut 0.083095 5.899444861363162 1 2 17.698334584089487
pair_coeff 4 38 wf/cut 0.042872 5.848454222246143 1 2 17.545362666738427
pair_coeff 4 39 wf/cut 0.039567 5.808550835350359 1 2 17.425652506051076
pair_coeff 4 40 wf/cut 0.015576 6.214617146494642 1 2 18.643851439483925
pair_coeff 5 5 wf/cut 0.089916 6.839051042416954 1 2 20.51715312725086
pair_coeff 5 6 wf/cut 0.176473 6.049093128275473 1 2 18.14727938482642
pair_coeff 5 7 wf/cut 0.001522 6.329860382208001 1 2 18.989581146624005
pair_coeff 5 8 wf/cut 0.001554 6.507087894628845 1 2 19.521263683886534
pair_coeff 5 9 wf/cut 0.607820 6.786238537205683 1 2 20.358715611617047
pair_coeff 5 10 wf/cut 0.154522 6.477800731622431 1 2 19.433402194867295
pair_coeff 5 11 wf/cut 0.157232 6.644606745714045 1 2 19.933820237142136
pair_coeff 5 12 wf/cut 0.251957 6.5582801074116395 1 2 19.674840322234918
pair_coeff 5 13 wf/cut 0.691657 6.952550947859904 1 2 20.85765284357971
pair_coeff 5 14 wf/cut 0.544942 6.734244851368496 1 2 20.20273455410549
pair_coeff 5 15 wf/cut 0.182533 6.121907195991114 1 2 18.365721587973344
pair_coeff 5 16 wf/cut 0.124237 6.588371399225676 1 2 19.76511419767703
pair_coeff 5 17 wf/cut 0.248657 6.381027696653046 1 2 19.143083089959138
pair_coeff 5 18 wf/cut 0.191071 6.319850876308843 1 2 18.95955262892653
pair_coeff 5 19 wf/cut 0.186388 6.2782756347766915 1 2 18.834826904330075
pair_coeff 5 20 wf/cut 0.151930 6.644914452592528 1 2 19.934743357777585
pair_coeff 5 21 wf/cut 0.165462 6.6442230427261695 1 2 19.93266912817851
pair_coeff 5 22 wf/cut 0.185415 5.7668587075646895 1 2 17.300576122694068
pair_coeff 5 23 wf/cut 0.160791 6.738370816695987 1 2 20.21511245008796
pair_coeff 5 24 wf/cut 0.162438 6.352227758045304 1 2 19.056683274135914
pair_coeff 5 25 wf/cut 0.076528 6.839775073180529 1 2 20.519325219541585
pair_coeff 5 26 wf/cut 0.169038 6.0493803544908396 1 2 18.14814106347252
pair_coeff 5 27 wf/cut 0.001403 6.330338025744615 1 2 18.991014077233842
pair_coeff 5 28 wf/cut 0.001424 6.507609785991295 1 2 19.522829357973883
pair_coeff 5 29 wf/cut 0.516647 6.786966179847217 1 2 20.36089853954165
pair_coeff 5 30 wf/cut 0.154108 6.477855546012645 1 2 19.433566638037934
pair_coeff 5 31 wf/cut 0.155600 6.644688317632491 1 2 19.934064952897472
pair_coeff 5 32 wf/cut 0.221649 6.558922216808411 1 2 19.676766650425233
pair_coeff 5 33 wf/cut 0.587908 6.953270762564632 1 2 20.859812287693895
pair_coeff 5 34 wf/cut 0.463200 6.734965561624807 1 2 20.20489668487442
pair_coeff 5 35 wf/cut 0.173168 6.122239691611766 1 2 18.366719074835295
pair_coeff 5 36 wf/cut 0.103828 6.589083179632521 1 2 19.767249538897563
pair_coeff 5 37 wf/cut 0.219449 6.381655047319296 1 2 19.14496514195789
pair_coeff 5 38 wf/cut 0.179226 6.320242196579514 1 2 18.96072658973854
pair_coeff 5 39 wf/cut 0.175921 6.27864243896636 1 2 18.83592731689908
pair_coeff 5 40 wf/cut 0.151930 6.644914452592528 1 2 19.934743357777585
pair_coeff 6 6 wf/cut 0.049480 5.270073550243385 1 2 15.810220650730155
pair_coeff 6 7 wf/cut 0.078130 5.545103888084069 1 2 16.635311664252207
pair_coeff 6 8 wf/cut 0.082535 5.721983178129665 1 2 17.165949534388993
pair_coeff 6 9 wf/cut 0.234333 5.995374866482686 1 2 17.986124599448058
pair_coeff 6 10 wf/cut 0.027529 5.714672842433839 1 2 17.14401852730152
pair_coeff 6 11 wf/cut 0.030239 5.879183169613761 1 2 17.637549508841282
pair_coeff 6 12 wf/cut 0.124964 5.769878425481944 1 2 17.30963527644583
pair_coeff 6 13 wf/cut 0.299889 6.1612197345718664 1 2 18.4836592037156
pair_coeff 6 14 wf/cut 0.220561 5.943524169558512 1 2 17.830572508675537
pair_coeff 6 15 wf/cut 0.055540 5.341186580911172 1 2 16.023559742733518
pair_coeff 6 16 wf/cut 0.208449 5.797765867232053 1 2 17.393297601696162
pair_coeff 6 17 wf/cut 0.121665 5.592676667454632 1 2 16.778030002363895
pair_coeff 6 18 wf/cut 0.064078 5.537383848868321 1 2 16.612151546604963
pair_coeff 6 19 wf/cut 0.059395 5.496867679432823 1 2 16.490603038298467
pair_coeff 6 20 wf/cut 0.024937 5.887264113119765 1 2 17.661792339359295
pair_coeff 6 21 wf/cut 0.038469 5.872091702440819 1 2 17.616275107322455
pair_coeff 6 22 wf/cut 0.058422 4.983057318967985 1 2 14.949171956903955
pair_coeff 6 23 wf/cut 0.033798 5.970212624670237 1 2 17.91063787401071
pair_coeff 6 24 wf/cut 0.035445 5.581322386503443 1 2 16.743967159510326
pair_coeff 6 25 wf/cut 0.131015 6.051283655448215 1 2 18.153850966344642
pair_coeff 6 26 wf/cut 0.042046 5.273529178305013 1 2 15.82058753491504
pair_coeff 6 27 wf/cut 0.062150 5.548382201124551 1 2 16.645146603373654
pair_coeff 6 28 wf/cut 0.065178 5.725365872076537 1 2 17.17609761622961
pair_coeff 6 29 wf/cut 0.171517 5.997120040197383 1 2 17.991360120592148
pair_coeff 6 30 wf/cut 0.027116 5.716115591130418 1 2 17.148346773391253
pair_coeff 6 31 wf/cut 0.028607 5.881066148485684 1 2 17.643198445457053
pair_coeff 6 32 wf/cut 0.094656 5.77257425641905 1 2 17.317722769257152
pair_coeff 6 33 wf/cut 0.217240 6.16266774871136 1 2 18.48800324613408
pair_coeff 6 34 wf/cut 0.161876 5.945332519051 1 2 17.835997557153
pair_coeff 6 35 wf/cut 0.046175 5.344636755005952 1 2 16.03391026501786
pair_coeff 6 36 wf/cut 0.153342 5.799630893236802 1 2 17.398892679710407
pair_coeff 6 37 wf/cut 0.092457 5.595329366190724 1 2 16.785988098572172
pair_coeff 6 38 wf/cut 0.052233 5.540935423926066 1 2 16.6228062717782
pair_coeff 6 39 wf/cut 0.048928 5.50037559161048 1 2 16.50112677483144
pair_coeff 6 40 wf/cut 0.024937 5.887264113119765 1 2 17.661792339359295
pair_coeff 7 7 wf/cut 0.079096 5.823521721060312 1 2 17.470565163180936
pair_coeff 7 8 wf/cut 0.082359 6.000582237524121 1 2 18.001746712572363
pair_coeff 7 9 wf/cut 0.262983 6.276473791430636 1 2 18.829421374291908
pair_coeff 7 10 wf/cut 0.056178 5.978735433494051 1 2 17.93620630048215
pair_coeff 7 11 wf/cut 0.058888 6.145089275635634 1 2 18.4352678269069
pair_coeff 7 12 wf/cut 0.153614 6.0500403862929435 1 2 18.150121158878832
pair_coeff 7 13 wf/cut 0.328538 6.4424403069543335 1 2 19.327320920863002
pair_coeff 7 14 wf/cut 0.249211 6.224557346027278 1 2 18.673672038081833
pair_coeff 7 15 wf/cut 0.084189 5.617298771179795 1 2 16.851896313539385
pair_coeff 7 16 wf/cut 0.001758 6.078759471752929 1 2 18.236278415258788
pair_coeff 7 17 wf/cut 0.150314 5.872796196825872 1 2 17.618388590477615
pair_coeff 7 18 wf/cut 0.092728 5.81454574012806 1 2 17.44363722038418
pair_coeff 7 19 wf/cut 0.088045 5.773404302618334 1 2 17.320212907855
pair_coeff 7 20 wf/cut 0.053587 6.146988238119009 1 2 18.44096471435703
pair_coeff 7 21 wf/cut 0.067118 6.142810853550669 1 2 18.428432560652006
pair_coeff 7 22 wf/cut 0.087071 5.260822534908925 1 2 15.782467604726776
pair_coeff 7 23 wf/cut 0.062448 6.238009317192061 1 2 18.714027951576185
pair_coeff 7 24 wf/cut 0.064094 5.850906179325341 1 2 17.552718537976023
pair_coeff 7 25 wf/cut 0.159665 6.331479448731908 1 2 18.994438346195725
pair_coeff 7 26 wf/cut 0.070695 5.546505225276659 1 2 16.639515675829976
pair_coeff 7 27 wf/cut 0.067258 5.825264832984326 1 2 17.47579449895298
pair_coeff 7 28 wf/cut 0.069297 6.002427424339147 1 2 18.00728227301744
pair_coeff 7 29 wf/cut 0.200166 6.277866750279897 1 2 18.83360025083969
pair_coeff 7 30 wf/cut 0.055765 5.978921905643417 1 2 17.93676571693025
pair_coeff 7 31 wf/cut 0.057257 6.145621669676131 1 2 18.43686500902839
pair_coeff 7 32 wf/cut 0.123306 6.051811079871612 1 2 18.155433239614837
pair_coeff 7 33 wf/cut 0.245890 6.4436539809330755 1 2 19.330961942799227
pair_coeff 7 34 wf/cut 0.190526 6.225980124267849 1 2 18.677940372803548
pair_coeff 7 35 wf/cut 0.074825 5.6188072088999945 1 2 16.856421626699984
pair_coeff 7 36 wf/cut 0.001350 6.080187764149639 1 2 18.24056329244892
pair_coeff 7 37 wf/cut 0.121106 5.874523045623452 1 2 17.623569136870355
pair_coeff 7 38 wf/cut 0.080883 5.816239431041905 1 2 17.448718293125715
pair_coeff 7 39 wf/cut 0.077578 5.775001596638995 1 2 17.325004789916985
pair_coeff 7 40 wf/cut 0.053587 6.146988238119009 1 2 18.44096471435703
pair_coeff 8 8 wf/cut 0.085622 6.177670315650897 1 2 18.533010946952693
pair_coeff 8 9 wf/cut 0.267388 6.453698205558216 1 2 19.36109461667465
pair_coeff 8 10 wf/cut 0.060583 6.155038804583549 1 2 18.46511641375065
pair_coeff 8 11 wf/cut 0.063293 6.321457293122011 1 2 18.964371879366034
pair_coeff 8 12 wf/cut 0.158019 6.22721384211578 1 2 18.681641526347338
pair_coeff 8 13 wf/cut 0.332943 6.61969178186508 1 2 19.85907534559524
pair_coeff 8 14 wf/cut 0.253616 6.401798946045327 1 2 19.205396838135982
pair_coeff 8 15 wf/cut 0.088594 5.794219764312674 1 2 17.382659292938023
pair_coeff 8 16 wf/cut 0.001791 6.2560007029022255 1 2 18.768002108706675
pair_coeff 8 17 wf/cut 0.154719 6.049988923928926 1 2 18.14996677178678
pair_coeff 8 18 wf/cut 0.097133 5.991524845146615 1 2 17.974574535439846
pair_coeff 8 19 wf/cut 0.092450 5.950364732175825 1 2 17.851094196527477
pair_coeff 8 20 wf/cut 0.057992 6.323325627682127 1 2 18.96997688304638
pair_coeff 8 21 wf/cut 0.071523 6.319407907453407 1 2 18.95822372236022
pair_coeff 8 22 wf/cut 0.091476 5.437918514751647 1 2 16.313755544254942
pair_coeff 8 23 wf/cut 0.066853 6.414637503765215 1 2 19.243912511295648
pair_coeff 8 24 wf/cut 0.068499 6.027610728824833 1 2 18.082832186474498
pair_coeff 8 25 wf/cut 0.164070 6.50867097271995 1 2 19.52601291815985
pair_coeff 8 26 wf/cut 0.075100 5.723271374681476 1 2 17.16981412404443
pair_coeff 8 27 wf/cut 0.095204 6.002225923033709 1 2 18.006677769101127
pair_coeff 8 28 wf/cut 0.072560 6.179413824459994 1 2 18.538241473379983
pair_coeff 8 29 wf/cut 0.204571 6.455074051412765 1 2 19.365222154238296
pair_coeff 8 30 wf/cut 0.060170 6.155372367938502 1 2 18.466117103815506
pair_coeff 8 31 wf/cut 0.061662 6.321931368367982 1 2 18.965794105103946
pair_coeff 8 32 wf/cut 0.127711 6.228922014398231 1 2 18.686766043194694
pair_coeff 8 33 wf/cut 0.250295 6.620903112987423 1 2 19.86270933896227
pair_coeff 8 34 wf/cut 0.194931 6.403201712664134 1 2 19.2096051379924
pair_coeff 8 35 wf/cut 0.079230 5.795615810910755 1 2 17.386847432732267
pair_coeff 8 36 wf/cut 0.001379 6.257425310960982 1 2 18.772275932882945
pair_coeff 8 37 wf/cut 0.125511 6.051653861598323 1 2 18.154961584794968
pair_coeff 8 38 wf/cut 0.085288 5.993104375441103 1 2 17.97931312632331
pair_coeff 8 39 wf/cut 0.081983 5.951847773872721 1 2 17.855543321618164
pair_coeff 8 40 wf/cut 0.057992 6.323325627682127 1 2 18.96997688304638
pair_coeff 9 9 wf/cut 0.419186 6.733634028253079 1 2 20.20090208475924
pair_coeff 9 10 wf/cut 0.212382 6.423549039740656 1 2 19.270647119221966
pair_coeff 9 11 wf/cut 0.215092 6.590387900103195 1 2 19.771163700309586
pair_coeff 9 12 wf/cut 0.309817 6.50524897581083 1 2 19.51574692743249
pair_coeff 9 13 wf/cut 0.484741 6.900050363131952 1 2 20.700151089395856
pair_coeff 9 14 wf/cut 0.405414 6.6815889712242855 1 2 20.044766913672856
pair_coeff 9 15 wf/cut 0.240393 6.068280818635755 1 2 18.204842455907265
pair_coeff 9 16 wf/cut 0.393302 6.535691224609458 1 2 19.607073673828374
pair_coeff 9 17 wf/cut 0.306517 6.327982683666391 1 2 18.98394805099917
pair_coeff 9 18 wf/cut 0.248931 6.266295198960733 1 2 18.798885596882197
pair_coeff 9 19 wf/cut 0.244248 6.2246507773507185 1 2 18.673952332052156
pair_coeff 9 20 wf/cut 0.209790 6.5905505017289965 1 2 19.771651505186988
pair_coeff 9 21 wf/cut 0.223322 6.590180270116687 1 2 19.770540810350063
pair_coeff 9 22 wf/cut 0.243275 5.713450024075365 1 2 17.140350072226095
pair_coeff 9 23 wf/cut 0.218651 6.6841805825849985 1 2 20.052541747754994
pair_coeff 9 24 wf/cut 0.220298 6.298178954636986 1 2 18.894536863910957
pair_coeff 9 25 wf/cut 0.315868 6.786739795335731 1 2 20.360219386007195
pair_coeff 9 26 wf/cut 0.226898 5.99553560612189 1 2 17.98660681836567
pair_coeff 9 27 wf/cut 0.247003 6.276768673597067 1 2 18.8303060207912
pair_coeff 9 28 wf/cut 0.250031 6.454011505099358 1 2 19.362034515298074
pair_coeff 9 29 wf/cut 0.356369 6.734156486173098 1 2 20.202469458519293
pair_coeff 9 30 wf/cut 0.211968 6.4235779793345555 1 2 19.270733938003666
pair_coeff 9 31 wf/cut 0.213460 6.590431338464252 1 2 19.771294015392755
pair_coeff 9 32 wf/cut 0.279509 6.505661229041637 1 2 19.516983687124913
pair_coeff 9 33 wf/cut 0.402093 6.900589936537501 1 2 20.701769809612504
pair_coeff 9 34 wf/cut 0.346729 6.682106650582579 1 2 20.046319951747737
pair_coeff 9 35 wf/cut 0.231028 6.06846960743136 1 2 18.20540882229408
pair_coeff 9 36 wf/cut 0.338195 6.536191669581551 1 2 19.60857500874465
pair_coeff 9 37 wf/cut 0.277309 6.328383771538186 1 2 18.98515131461456
pair_coeff 9 38 wf/cut 0.237086 6.266521616565618 1 2 18.799564849696853
pair_coeff 9 39 wf/cut 0.233781 6.224860927463627 1 2 18.674582782390882
pair_coeff 9 40 wf/cut 0.209790 6.5905505017289965 1 2 19.771651505186988
pair_coeff 10 10 wf/cut 0.005578 6.265999286288815 1 2 18.797997858866445
pair_coeff 10 11 wf/cut 0.008288 6.390932891994093 1 2 19.17279867598228
pair_coeff 10 12 wf/cut 0.103013 6.199729734496916 1 2 18.59918920349075
pair_coeff 10 13 wf/cut 0.277937 6.589117480615403 1 2 19.76735244184621
pair_coeff 10 14 wf/cut 0.198610 6.371783619045257 1 2 19.11535085713577
pair_coeff 10 15 wf/cut 0.033589 5.781664862063682 1 2 17.344994586191046
pair_coeff 10 16 wf/cut 0.186498 6.226104236834126 1 2 18.67831271050238
pair_coeff 10 17 wf/cut 0.099713 6.022605657483588 1 2 18.067816972450764
pair_coeff 10 18 wf/cut 0.042127 5.974331431598945 1 2 17.922994294796837
pair_coeff 10 19 wf/cut 0.037444 5.935671447441882 1 2 17.807014342325644
pair_coeff 10 21 wf/cut 0.016518 6.336783382464571 1 2 19.010350147393712
pair_coeff 10 22 wf/cut 0.036471 5.418375566526451 1 2 16.255126699579353
pair_coeff 10 23 wf/cut 0.011847 6.452549354094189 1 2 19.357648062282568
pair_coeff 10 24 wf/cut 0.013494 6.0532242372044625 1 2 18.15967271161339
pair_coeff 10 25 wf/cut 0.109064 6.480992623201166 1 2 19.442977869603496
pair_coeff 10 26 wf/cut 0.020094 5.727883796640076 1 2 17.18365138992023
pair_coeff 10 27 wf/cut 0.040199 5.986137211233324 1 2 17.958411633699974
pair_coeff 10 28 wf/cut 0.043227 6.162354266488605 1 2 18.487062799465814
pair_coeff 10 29 wf/cut 0.149565 6.425899535640867 1 2 19.277698606922602
pair_coeff 10 30 wf/cut 0.005164 6.279450553510229 1 2 18.838351660530687
pair_coeff 10 31 wf/cut 0.006656 6.414806714205564 1 2 19.24442014261669
pair_coeff 10 32 wf/cut 0.072705 6.20424895331838 1 2 18.61274685995514
pair_coeff 10 33 wf/cut 0.195289 6.590957221363035 1 2 19.772871664089106
pair_coeff 10 34 wf/cut 0.139925 6.374256698313246 1 2 19.12277009493974
pair_coeff 10 35 wf/cut 0.024224 5.79281450588842 1 2 17.37844351766526
pair_coeff 10 36 wf/cut 0.131391 6.228661475252712 1 2 18.685984425758136
pair_coeff 10 37 wf/cut 0.070505 6.027117316392745 1 2 18.081351949178234
pair_coeff 10 38 wf/cut 0.030282 5.983977483837185 1 2 17.951932451511553
pair_coeff 10 39 wf/cut 0.026977 5.94607610198081 1 2 17.83822830594243
pair_coeff 11 11 wf/cut 0.010998 6.53407242179841 1 2 19.60221726539523
pair_coeff 11 12 wf/cut 0.105723 6.366490684329992 1 2 19.099472052989977
pair_coeff 11 13 wf/cut 0.280647 6.755935225417062 1 2 20.267805676251186
pair_coeff 11 14 wf/cut 0.201320 6.538603519887749 1 2 19.615810559663245
pair_coeff 11 15 wf/cut 0.036299 5.946968662780402 1 2 17.840905988341206
pair_coeff 11 16 wf/cut 0.189208 6.392942886970462 1 2 19.178828660911385
pair_coeff 11 17 wf/cut 0.102423 6.189364574070181 1 2 18.56809372221054
pair_coeff 11 18 wf/cut 0.044837 6.1402119935661545 1 2 18.420635980698464
pair_coeff 11 19 wf/cut 0.040154 6.101247830628814 1 2 18.30374349188644
pair_coeff 11 20 wf/cut 0.005696 6.607723261980873 1 2 19.823169785942618
pair_coeff 11 21 wf/cut 0.019228 6.496393035701747 1 2 19.48917910710524
pair_coeff 11 22 wf/cut 0.039181 5.584501642231329 1 2 16.753504926693985
pair_coeff 11 23 wf/cut 0.014557 6.60658239133453 1 2 19.819747174003588
pair_coeff 11 24 wf/cut 0.016204 6.210508609486856 1 2 18.631525828460568
pair_coeff 11 25 wf/cut 0.111774 6.647740379710509 1 2 19.943221139131527
pair_coeff 11 26 wf/cut 0.022804 5.890170182090268 1 2 17.670510546270805
pair_coeff 11 27 wf/cut 0.042909 6.151889183567281 1 2 18.455667550701843
pair_coeff 11 28 wf/cut 0.045937 6.3282208238107795 1 2 18.984662471432337
pair_coeff 11 29 wf/cut 0.152275 6.5927216895129135 1 2 19.77816506853874
pair_coeff 11 30 wf/cut 0.007874 6.397951767513159 1 2 19.193855302539475
pair_coeff 11 31 wf/cut 0.009366 6.548412328573101 1 2 19.645236985719304
pair_coeff 11 32 wf/cut 0.075415 6.370842118401069 1 2 19.112526355203208
pair_coeff 11 33 wf/cut 0.197999 6.75777413374384 1 2 20.27332240123152
pair_coeff 11 34 wf/cut 0.142635 6.541054552668633 1 2 19.623163658005897
pair_coeff 11 35 wf/cut 0.026934 5.956563720651988 1 2 17.869691161955963
pair_coeff 11 36 wf/cut 0.134101 6.395473237725452 1 2 19.186419713176356
pair_coeff 11 37 wf/cut 0.073215 6.193703302501737 1 2 18.58110990750521
pair_coeff 11 38 wf/cut 0.032992 6.148785435376327 1 2 18.446356306128983
pair_coeff 11 39 wf/cut 0.029687 6.110345071454451 1 2 18.331035214363354
pair_coeff 11 40 wf/cut 0.005696 6.607723261980873 1 2 19.823169785942618
pair_coeff 12 12 wf/cut 0.200448 6.277850874229409 1 2 18.833552622688227
pair_coeff 12 13 wf/cut 0.375372 6.671405311072043 1 2 20.01421593321613
pair_coeff 12 14 wf/cut 0.296045 6.4532756440329795 1 2 19.35982693209894
pair_coeff 12 15 wf/cut 0.131024 5.84255485528308 1 2 17.52766456584924
pair_coeff 12 16 wf/cut 0.283933 6.307431677259977 1 2 18.92229503177993
pair_coeff 12 17 wf/cut 0.197148 6.100591694847331 1 2 18.301775084541994
pair_coeff 12 18 wf/cut 0.139562 6.040345112977554 1 2 18.12103533893266
pair_coeff 12 19 wf/cut 0.134879 5.998852825433778 1 2 17.99655847630133
pair_coeff 12 20 wf/cut 0.100421 6.367152767929573 1 2 19.101458303788718
pair_coeff 12 21 wf/cut 0.113953 6.365699666568734 1 2 19.0970989997062
pair_coeff 12 22 wf/cut 0.133906 5.487109605448974 1 2 16.46132881634692
pair_coeff 12 23 wf/cut 0.109282 6.460110665288058 1 2 19.380331995864175
pair_coeff 12 24 wf/cut 0.110929 6.07371622854753 1 2 18.22114868564259
pair_coeff 12 25 wf/cut 0.206499 6.559327404195954 1 2 19.67798221258786
pair_coeff 12 26 wf/cut 0.117529 5.770434344200525 1 2 17.311303032601575
pair_coeff 12 27 wf/cut 0.137634 6.050878049577443 1 2 18.15263414873233
pair_coeff 12 28 wf/cut 0.140662 6.22811906216779 1 2 18.68435718650337
pair_coeff 12 29 wf/cut 0.247000 6.506235094735004 1 2 19.518705284205012
pair_coeff 12 30 wf/cut 0.102599 6.199847722340906 1 2 18.59954316702272
pair_coeff 12 31 wf/cut 0.104091 6.366663725733202 1 2 19.099991177199605
pair_coeff 12 32 wf/cut 0.170140 6.278875223812024 1 2 18.836625671436074
pair_coeff 12 33 wf/cut 0.292724 6.6723319742793255 1 2 20.016995922837978
pair_coeff 12 34 wf/cut 0.237360 6.454265231889239 1 2 19.362795695667717
pair_coeff 12 35 wf/cut 0.121659 5.8431832590102974 1 2 17.529549777030894
pair_coeff 12 36 wf/cut 0.228826 6.308421039847022 1 2 18.925263119541064
pair_coeff 12 37 wf/cut 0.167940 6.10158175427316 1 2 18.30474526281948
pair_coeff 12 38 wf/cut 0.127717 6.041063379946771 1 2 18.123190139840315
pair_coeff 12 39 wf/cut 0.124412 5.999536872422517 1 2 17.998610617267552
pair_coeff 12 40 wf/cut 0.100421 6.367152767929573 1 2 19.101458303788718
pair_coeff 13 13 wf/cut 0.550297 7.066547961746265 1 2 21.199643885238793
pair_coeff 13 14 wf/cut 0.470970 6.84798437757724 1 2 20.54395313273172
pair_coeff 13 15 wf/cut 0.305948 6.234139720557474 1 2 18.702419161672424
pair_coeff 13 16 wf/cut 0.458857 6.702091518082294 1 2 20.10627455424688
pair_coeff 13 17 wf/cut 0.372073 6.494164476750084 1 2 19.48249343025025
pair_coeff 13 18 wf/cut 0.314487 6.432174788842087 1 2 19.29652436652626
pair_coeff 13 19 wf/cut 0.309804 6.390531854157171 1 2 19.171595562471513
pair_coeff 13 20 wf/cut 0.275346 6.756032732095156 1 2 20.268098196285468
pair_coeff 13 21 wf/cut 0.288877 6.755817014102551 1 2 20.267451042307652
pair_coeff 13 22 wf/cut 0.308830 5.879425000161095 1 2 17.638275000483283
pair_coeff 13 23 wf/cut 0.284207 6.8497445004881925 1 2 20.549233501464578
pair_coeff 13 24 wf/cut 0.285853 6.4638463520895115 1 2 19.391539056268535
pair_coeff 13 25 wf/cut 0.381424 6.952910842994874 1 2 20.85873252898462
pair_coeff 13 26 wf/cut 0.292454 6.1613130283141055 1 2 18.483939084942318
pair_coeff 13 27 wf/cut 0.312558 6.442631932062835 1 2 19.327895796188507
pair_coeff 13 28 wf/cut 0.315587 6.619890395721167 1 2 19.8596711871635
pair_coeff 13 29 wf/cut 0.421925 6.900441239237516 1 2 20.701323717712548
pair_coeff 13 30 wf/cut 0.277524 6.589134834507833 1 2 19.7674045035235
pair_coeff 13 31 wf/cut 0.279016 6.755970194682537 1 2 20.267910584047613
pair_coeff 13 32 wf/cut 0.345065 6.671688068448729 1 2 20.015064205346185
pair_coeff 13 33 wf/cut 0.467649 7.066966231238362 1 2 21.200898693715086
pair_coeff 13 34 wf/cut 0.412285 6.848368288265007 1 2 20.54510486479502
pair_coeff 13 35 wf/cut 0.296584 6.23425905911194 1 2 18.70277717733582
pair_coeff 13 36 wf/cut 0.403751 6.702459807412386 1 2 20.10737942223716
pair_coeff 13 37 wf/cut 0.342865 6.494438889291505 1 2 19.483316667874515
pair_coeff 13 38 wf/cut 0.302642 6.4323262444775215 1 2 19.296978733432564
pair_coeff 13 39 wf/cut 0.299337 6.3906653903753785 1 2 19.171996171126136
pair_coeff 13 40 wf/cut 0.275346 6.756032732095156 1 2 20.268098196285468
pair_coeff 14 14 wf/cut 0.391642 6.629549396410893 1 2 19.88864818923268
pair_coeff 14 15 wf/cut 0.226621 6.016400811210637 1 2 18.049202433631912
pair_coeff 14 16 wf/cut 0.379530 6.483674128071082 1 2 19.451022384213246
pair_coeff 14 17 wf/cut 0.292745 6.276026354822916 1 2 18.828079064468746
pair_coeff 14 18 wf/cut 0.235159 6.2144055979415755 1 2 18.643216793824728
pair_coeff 14 19 wf/cut 0.230476 6.172787382997035 1 2 18.518362148991105
pair_coeff 14 20 wf/cut 0.196018 6.538787910119839 1 2 19.616363730359517
pair_coeff 14 21 wf/cut 0.209550 6.538369107168012 1 2 19.615107321504034
pair_coeff 14 22 wf/cut 0.229503 5.661533193978743 1 2 16.98459958193623
pair_coeff 14 23 wf/cut 0.204879 6.632390006238709 1 2 19.89717001871613
pair_coeff 14 24 wf/cut 0.206526 6.246381672050424 1 2 18.73914501615127
pair_coeff 14 25 wf/cut 0.302096 6.734778137463742 1 2 20.204334412391226
pair_coeff 14 26 wf/cut 0.213126 5.94370434405314 1 2 17.831113032159422
pair_coeff 14 27 wf/cut 0.233231 6.2248725061501835 1 2 18.67461751845055
pair_coeff 14 28 wf/cut 0.236259 6.402145618033878 1 2 19.206436854101636
pair_coeff 14 29 wf/cut 0.342598 6.6821466956694 1 2 20.0464400870082
pair_coeff 14 30 wf/cut 0.198196 6.3718164337361864 1 2 19.11544930120856
pair_coeff 14 31 wf/cut 0.199688 6.538652708676239 1 2 19.61595812602872
pair_coeff 14 32 wf/cut 0.265737 6.453725824442914 1 2 19.361177473328745
pair_coeff 14 33 wf/cut 0.388321 6.848555261309869 1 2 20.545665783929607
pair_coeff 14 34 wf/cut 0.332957 6.630097176272377 1 2 19.89029152881713
pair_coeff 14 35 wf/cut 0.217256 6.0166118728379825 1 2 18.049835618513946
pair_coeff 14 36 wf/cut 0.324423 6.484210545760694 1 2 19.45263163728208
pair_coeff 14 37 wf/cut 0.263537 6.276464594313065 1 2 18.829393782939196
pair_coeff 14 38 wf/cut 0.223314 6.2146578822218475 1 2 18.643973646665543
pair_coeff 14 39 wf/cut 0.220009 6.173021960210248 1 2 18.51906588063074
pair_coeff 14 40 wf/cut 0.196018 6.538787910119839 1 2 19.616363730359517
pair_coeff 15 15 wf/cut 0.061600 5.412669704115792 1 2 16.238009112347374
pair_coeff 15 16 wf/cut 0.214509 5.870633388669294 1 2 17.61190016600788
pair_coeff 15 17 wf/cut 0.127724 5.665328065098679 1 2 16.99598419529604
pair_coeff 15 18 wf/cut 0.070138 5.60931576883087 1 2 16.82794730649261
pair_coeff 15 19 wf/cut 0.065455 5.568478936337624 1 2 16.705436809012873
pair_coeff 15 20 wf/cut 0.030997 5.95253426830798 1 2 17.857602804923943
pair_coeff 15 21 wf/cut 0.044529 5.941730116730399 1 2 17.8251903501912
pair_coeff 15 22 wf/cut 0.064482 5.055066526249052 1 2 15.165199578747156
pair_coeff 15 23 wf/cut 0.039858 6.0388189375203165 1 2 18.116456812560948
pair_coeff 15 24 wf/cut 0.041505 5.650569731939204 1 2 16.951709195817614
pair_coeff 15 25 wf/cut 0.137075 6.123955851741878 1 2 18.371867555225634
pair_coeff 15 26 wf/cut 0.048105 5.343933138992498 1 2 16.031799416977496
pair_coeff 15 27 wf/cut 0.068210 5.620115241697351 1 2 16.860345725092053
pair_coeff 15 28 wf/cut 0.071238 5.79714638380999 1 2 17.39143915142997
pair_coeff 15 29 wf/cut 0.177576 6.069943102760143 1 2 18.20982930828043
pair_coeff 15 30 wf/cut 0.033175 5.7826589372196375 1 2 17.347976811658913
pair_coeff 15 31 wf/cut 0.034667 5.948302390882524 1 2 17.84490717264757
pair_coeff 15 32 wf/cut 0.100716 5.845003436795657 1 2 17.53501031038697
pair_coeff 15 33 wf/cut 0.223300 6.235536027214636 1 2 18.706608081643907
pair_coeff 15 34 wf/cut 0.167936 6.018117533790267 1 2 18.054352601370802
pair_coeff 15 35 wf/cut 0.052235 5.415473890209146 1 2 16.246421670627438
pair_coeff 15 36 wf/cut 0.159402 5.872398100194439 1 2 17.617194300583318
pair_coeff 15 37 wf/cut 0.098516 5.667732143982081 1 2 17.003196431946243
pair_coeff 15 38 wf/cut 0.058293 5.612162941341123 1 2 16.83648882402337
pair_coeff 15 39 wf/cut 0.054988 5.571364187563539 1 2 16.714092562690617
pair_coeff 15 40 wf/cut 0.030997 5.95253426830798 1 2 17.857602804923943
pair_coeff 16 16 wf/cut 0.027216 6.337782403912046 1 2 19.01334721173614
pair_coeff 16 17 wf/cut 0.280633 6.130180422228775 1 2 18.390541266686323
pair_coeff 16 18 wf/cut 0.223047 6.068649252074198 1 2 18.205947756222592
pair_coeff 16 19 wf/cut 0.218364 6.027019005823624 1 2 18.081057017470872
pair_coeff 16 20 wf/cut 0.183906 6.393147480752069 1 2 19.179442442256207
pair_coeff 16 21 wf/cut 0.197438 6.392683938124808 1 2 19.178051814374424
pair_coeff 16 22 wf/cut 0.217391 5.515750877499212 1 2 16.547252632497635
pair_coeff 16 23 wf/cut 0.192767 6.486724075272986 1 2 19.46017222581896
pair_coeff 16 24 wf/cut 0.194414 6.100672500483568 1 2 18.302017501450702
pair_coeff 16 25 wf/cut 0.289984 6.588935233441612 1 2 19.766805700324838
pair_coeff 16 26 wf/cut 0.201014 5.79796325726322 1 2 17.39388977178966
pair_coeff 16 27 wf/cut 0.221118 6.0791010484529915 1 2 18.237303145358975
pair_coeff 16 28 wf/cut 0.224147 6.256376087421608 1 2 18.769128262264825
pair_coeff 16 29 wf/cut 0.330485 6.536274979404401 1 2 19.608824938213203
pair_coeff 16 30 wf/cut 0.186084 6.226140636452508 1 2 18.678421909357525
pair_coeff 16 31 wf/cut 0.187576 6.392997387325535 1 2 19.178992161976602
pair_coeff 16 32 wf/cut 0.253625 6.307912958718467 1 2 18.9237388761554
pair_coeff 16 33 wf/cut 0.376209 6.702684222295407 1 2 20.10805266688622
pair_coeff 16 34 wf/cut 0.320845 6.484248553549719 1 2 19.452745660649157
pair_coeff 16 35 wf/cut 0.205144 5.870864049052838 1 2 17.612592147158516
pair_coeff 16 36 wf/cut 0.023134 6.338345846056568 1 2 19.015037538169704
pair_coeff 16 37 wf/cut 0.251425 6.130649043241044 1 2 18.391947129723132
pair_coeff 16 38 wf/cut 0.211202 6.0689241564117395 1 2 18.20677246923522
pair_coeff 16 39 wf/cut 0.207897 6.027275074473145 1 2 18.081825223419436
pair_coeff 16 40 wf/cut 0.183906 6.393147480752069 1 2 19.179442442256207
pair_coeff 17 17 wf/cut 0.193849 5.9233491242788805 1 2 17.770047372836643
pair_coeff 17 18 wf/cut 0.136263 5.8630821184928195 1 2 17.58924635547846
pair_coeff 17 19 wf/cut 0.131580 5.821644218417775 1 2 17.464932655253325
pair_coeff 17 20 wf/cut 0.097122 6.1899864646586105 1 2 18.569959393975832
pair_coeff 17 21 wf/cut 0.110653 6.188546099325202 1 2 18.565638297975607
pair_coeff 17 22 wf/cut 0.130606 5.30983190747035 1 2 15.929495722411051
pair_coeff 17 23 wf/cut 0.105983 6.282921319282791 1 2 18.848763957848373
pair_coeff 17 24 wf/cut 0.107629 5.896489952968157 1 2 17.68946985890447
pair_coeff 17 25 wf/cut 0.203200 6.382089400238762 1 2 19.146268200716285
pair_coeff 17 26 wf/cut 0.114230 5.59320394576633 1 2 16.77961183729899
pair_coeff 17 27 wf/cut 0.134334 5.873649240456693 1 2 17.62094772137008
pair_coeff 17 28 wf/cut 0.137363 6.050910374214647 1 2 18.152731122643942
pair_coeff 17 29 wf/cut 0.243701 6.328963417719822 1 2 18.986890253159466
pair_coeff 17 30 wf/cut 0.099300 6.022666584916778 1 2 18.067999754750335
pair_coeff 17 31 wf/cut 0.100792 6.189544117007458 1 2 18.568632351022373
pair_coeff 17 32 wf/cut 0.166841 6.101625831837799 1 2 18.304877495513395
pair_coeff 17 33 wf/cut 0.289424 6.495083547619462 1 2 19.485250642858386
pair_coeff 17 34 wf/cut 0.234061 6.277022750655092 1 2 18.831068251965277
pair_coeff 17 35 wf/cut 0.118359 5.665971807159278 1 2 16.997915421477835
pair_coeff 17 36 wf/cut 0.225527 6.131165252735328 1 2 18.393495758205983
pair_coeff 17 37 wf/cut 0.164641 5.924348407080925 1 2 17.773045221242775
pair_coeff 17 38 wf/cut 0.124417 5.863848431499796 1 2 17.591545294499387
pair_coeff 17 39 wf/cut 0.121113 5.822344488616284 1 2 17.46703346584885
pair_coeff 17 40 wf/cut 0.097122 6.1899864646586105 1 2 18.569959393975832
pair_coeff 18 18 wf/cut 0.078677 5.806155150598376 1 2 17.41846545179513
pair_coeff 18 19 wf/cut 0.073994 5.765149033334852 1 2 17.29544710000456
pair_coeff 18 20 wf/cut 0.039536 6.143860896897243 1 2 18.431582690691727
pair_coeff 18 21 wf/cut 0.053067 6.136530836242518 1 2 18.409592508727556
pair_coeff 18 22 wf/cut 0.073020 5.2521394224496145 1 2 15.756418267348844
pair_coeff 18 23 wf/cut 0.048396 6.232722071931244 1 2 18.698166215793734
pair_coeff 18 24 wf/cut 0.050043 5.845049472828402 1 2 17.535148418485207
pair_coeff 18 25 wf/cut 0.145613 6.3217567788528175 1 2 18.965270336558454
pair_coeff 18 26 wf/cut 0.056644 5.539473279208256 1 2 16.618419837624767
pair_coeff 18 27 wf/cut 0.076748 5.816985496228361 1 2 17.450956488685083
pair_coeff 18 28 wf/cut 0.079776 5.993977654615634 1 2 17.9819329638469
pair_coeff 18 29 wf/cut 0.186115 6.267859616819192 1 2 18.803578850457576
pair_coeff 18 30 wf/cut 0.041714 5.974983307333975 1 2 17.924949922001925
pair_coeff 18 31 wf/cut 0.043205 6.1411099770057245 1 2 18.42332993101717
pair_coeff 18 32 wf/cut 0.109254 6.042493928204347 1 2 18.12748178461304
pair_coeff 18 33 wf/cut 0.231838 6.433519247230287 1 2 19.300557741690863
pair_coeff 18 34 wf/cut 0.176474 6.216033392034327 1 2 18.648100176102982
pair_coeff 18 35 wf/cut 0.060773 5.611389850569513 1 2 16.834169551708538
pair_coeff 18 36 wf/cut 0.167940 6.070294170144763 1 2 18.21088251043429
pair_coeff 18 37 wf/cut 0.107055 5.865217375098184 1 2 17.595652125294553
pair_coeff 18 38 wf/cut 0.066831 5.808437279092397 1 2 17.425311837277192
pair_coeff 18 39 wf/cut 0.063527 5.767428643819603 1 2 17.302285931458808
pair_coeff 18 40 wf/cut 0.039536 6.143860896897243 1 2 18.431582690691727
pair_coeff 19 19 wf/cut 0.069311 5.724362787504792 1 2 17.173088362514378
pair_coeff 19 20 wf/cut 0.034853 6.10586575299424 1 2 18.31759725898272
pair_coeff 19 21 wf/cut 0.048384 6.0967512192398505 1 2 18.290253657719553
pair_coeff 19 22 wf/cut 0.068337 5.211108138159037 1 2 15.633324414477112
pair_coeff 19 23 wf/cut 0.043714 6.1934329156331 1 2 18.5802987468993
pair_coeff 19 24 wf/cut 0.045360 5.805442925019495 1 2 17.416328775058485
pair_coeff 19 25 wf/cut 0.140930 6.280274061428144 1 2 18.84082218428443
pair_coeff 19 26 wf/cut 0.051961 5.499319146540279 1 2 16.497957439620837
pair_coeff 19 27 wf/cut 0.072065 5.776024303801226 1 2 17.328072911403677
pair_coeff 19 28 wf/cut 0.075093 5.953096206763187 1 2 17.85928862028956
pair_coeff 19 29 wf/cut 0.181432 6.226290621468162 1 2 18.678871864404485
pair_coeff 19 30 wf/cut 0.037031 5.936496588820257 1 2 17.80948976646077
pair_coeff 19 31 wf/cut 0.038522 6.10236911417194 1 2 18.30710734251582
pair_coeff 19 32 wf/cut 0.104571 6.001202451726246 1 2 18.003607355178737
pair_coeff 19 33 wf/cut 0.227155 6.391918936768799 1 2 19.175756810306396
pair_coeff 19 34 wf/cut 0.171791 6.174477574070478 1 2 18.52343272221143
pair_coeff 19 35 wf/cut 0.056090 5.571011278043507 1 2 16.71303383413052
pair_coeff 19 36 wf/cut 0.163258 6.028753613252821 1 2 18.086260839758463
pair_coeff 19 37 wf/cut 0.102372 5.823949131867462 1 2 17.471847395602385
pair_coeff 19 38 wf/cut 0.062148 5.767856883865312 1 2 17.303570651595933
pair_coeff 19 39 wf/cut 0.058844 5.726983480603789 1 2 17.18095044181137
pair_coeff 19 40 wf/cut 0.034853 6.10586575299424 1 2 18.31759725898272
pair_coeff 20 21 wf/cut 0.013926 6.5199210046589675 1 2 19.5597630139769
pair_coeff 20 22 wf/cut 0.033879 5.587459907599181 1 2 16.76237972279754
pair_coeff 20 23 wf/cut 0.009256 6.649574443493311 1 2 19.948723330479933
pair_coeff 20 24 wf/cut 0.010902 6.242374503621665 1 2 18.727123510864995
pair_coeff 20 25 wf/cut 0.106472 6.648355967009086 1 2 19.945067901027258
pair_coeff 20 26 wf/cut 0.017503 5.903567074401621 1 2 17.71070122320486
pair_coeff 20 27 wf/cut 0.037607 6.155943831058615 1 2 18.467831493175847
pair_coeff 20 28 wf/cut 0.040635 6.331503643570952 1 2 18.994510930712856
pair_coeff 20 29 wf/cut 0.146974 6.593018960515583 1 2 19.77905688154675
pair_coeff 20 32 wf/cut 0.070113 6.372029116976672 1 2 19.116087350930016
pair_coeff 20 33 wf/cut 0.192697 6.757970683221281 1 2 20.273912049663842
pair_coeff 20 34 wf/cut 0.137333 6.5414250271565235 1 2 19.62427508146957
pair_coeff 20 35 wf/cut 0.021632 5.967018638311549 1 2 17.901055914934645
pair_coeff 20 36 wf/cut 0.128800 6.395882535691026 1 2 19.187647607073078
pair_coeff 20 37 wf/cut 0.067914 6.194931490620908 1 2 18.584794471862722
pair_coeff 20 38 wf/cut 0.027690 6.155796177211015 1 2 18.467388531633045
pair_coeff 20 39 wf/cut 0.024386 6.119051758363574 1 2 18.357155275090722
pair_coeff 21 21 wf/cut 0.027458 6.480069420606985 1 2 19.440208261820956
pair_coeff 21 22 wf/cut 0.047411 5.581642130693901 1 2 16.7449263920817
pair_coeff 21 23 wf/cut 0.022787 6.583002517343036 1 2 19.74900755202911
pair_coeff 21 24 wf/cut 0.024433 6.191552500203247 1 2 18.574657500609742
pair_coeff 21 25 wf/cut 0.120004 6.646999738911693 1 2 19.94099921673508
pair_coeff 21 26 wf/cut 0.031034 5.878598106878971 1 2 17.63579432063691
pair_coeff 21 27 wf/cut 0.051138 6.1478586796466335 1 2 18.443576038939902
pair_coeff 21 28 wf/cut 0.054167 6.324516380690015 1 2 18.973549142070045
pair_coeff 21 29 wf/cut 0.160505 6.592313711480712 1 2 19.776941134442136
pair_coeff 21 30 wf/cut 0.016104 6.340969704607503 1 2 19.02290911382251
pair_coeff 21 31 wf/cut 0.017596 6.5013402123206046 1 2 19.504020636961812
pair_coeff 21 32 wf/cut 0.083645 6.369348945541728 1 2 19.108046836625185
pair_coeff 21 33 wf/cut 0.206229 6.757540572332879 1 2 20.27262171699864
pair_coeff 21 34 wf/cut 0.150865 6.540596793679068 1 2 19.621790381037204
pair_coeff 21 35 wf/cut 0.035164 5.947844531230358 1 2 17.843533593691074
pair_coeff 21 36 wf/cut 0.142331 6.39500222582037 1 2 19.18500667746111
pair_coeff 21 37 wf/cut 0.081445 6.192166186380409 1 2 18.57649855914123
pair_coeff 21 38 wf/cut 0.041222 6.142414836822247 1 2 18.42724451046674
pair_coeff 21 39 wf/cut 0.037917 6.102763659737872 1 2 18.308290979213616
pair_coeff 21 40 wf/cut 0.013926 6.5199210046589675 1 2 19.5597630139769
pair_coeff 22 22 wf/cut 0.067364 4.698227190160832 1 2 14.094681570482496
pair_coeff 22 23 wf/cut 0.042740 5.6772849911904 1 2 17.0318549735712
pair_coeff 22 24 wf/cut 0.044387 5.289807269665101 1 2 15.869421808995302
pair_coeff 22 25 wf/cut 0.139957 5.768554114508845 1 2 17.305662343526535
pair_coeff 22 26 wf/cut 0.050987 4.984686027270456 1 2 14.954058081811368
pair_coeff 22 27 wf/cut 0.071091 5.262912382415455 1 2 15.788737147246366
pair_coeff 22 28 wf/cut 0.074120 5.439975772862831 1 2 16.319927318588494
pair_coeff 22 29 wf/cut 0.180458 5.714850862757114 1 2 17.144552588271342
pair_coeff 22 30 wf/cut 0.036057 5.418902704026212 1 2 16.256708112078634
pair_coeff 22 31 wf/cut 0.037549 5.585489758070483 1 2 16.756469274211447
pair_coeff 22 32 wf/cut 0.103598 5.489037080971375 1 2 16.467111242914125
pair_coeff 22 33 wf/cut 0.226182 5.8806376350894025 1 2 17.641912905268207
pair_coeff 22 34 wf/cut 0.170818 5.662987686021554 1 2 16.988963058064662
pair_coeff 22 35 wf/cut 0.055117 5.056931123036382 1 2 15.170793369109145
pair_coeff 22 36 wf/cut 0.162284 5.517215784587296 1 2 16.551647353761886
pair_coeff 22 37 wf/cut 0.101398 5.311696859115723 1 2 15.935090577347168
pair_coeff 22 38 wf/cut 0.061175 5.254183030641423 1 2 15.762549091924269
pair_coeff 22 39 wf/cut 0.057870 5.213062357159386 1 2 15.639187071478158
pair_coeff 22 40 wf/cut 0.033879 5.587459907599181 1 2 16.76237972279754
pair_coeff 23 23 wf/cut 0.013420 6.688853536606121 1 2 20.066560609818364
pair_coeff 23 24 wf/cut 0.019763 6.29527868599085 1 2 18.885836057972547
pair_coeff 23 25 wf/cut 0.085206 6.741392723436803 1 2 20.22417817031041
pair_coeff 23 26 wf/cut 0.026364 5.978305270632397 1 2 17.93491581189719
pair_coeff 23 27 wf/cut 0.000342 6.244253298502354 1 2 18.732759895507062
pair_coeff 23 28 wf/cut 0.000366 6.4204818546224995 1 2 19.261445563867497
pair_coeff 23 29 wf/cut 0.071890 6.686432938070228 1 2 20.059298814210685
pair_coeff 23 30 wf/cut 0.011434 6.460111302128625 1 2 19.380333906385875
pair_coeff 23 31 wf/cut 0.012925 6.617996254538358 1 2 19.853988763615074
pair_coeff 23 32 wf/cut 0.078974 6.4641118645001 1 2 19.3923355935003
pair_coeff 23 33 wf/cut 0.073358 6.85155566549562 1 2 20.55466699648686
pair_coeff 23 34 wf/cut 0.080693 6.634779187210656 1 2 19.90433756163197
pair_coeff 23 35 wf/cut 0.030493 6.046847416569171 1 2 18.14054224970751
pair_coeff 23 36 wf/cut 0.061166 6.489185414364156 1 2 19.467556243092467
pair_coeff 23 37 wf/cut 0.076775 6.2869559403051 1 2 18.860867820915303
pair_coeff 23 38 wf/cut 0.036551 6.240136548485556 1 2 18.72040964545667
pair_coeff 23 39 wf/cut 0.033247 6.2011686854634664 1 2 18.6035060563904
pair_coeff 23 40 wf/cut 0.009256 6.649574443493311 1 2 19.948723330479933
pair_coeff 24 24 wf/cut 0.021409 5.902825373061459 1 2 17.708476119184375
pair_coeff 24 25 wf/cut 0.116980 6.355020618222843 1 2 19.065061854668528
pair_coeff 24 26 wf/cut 0.028010 5.588184701124206 1 2 16.764554103372618
pair_coeff 24 27 wf/cut 0.048114 5.856453272809193 1 2 17.56935981842758
pair_coeff 24 28 wf/cut 0.051143 6.03282984385001 1 2 18.09848953155003
pair_coeff 24 29 wf/cut 0.157481 6.300272873273843 1 2 18.90081861982153
pair_coeff 24 30 wf/cut 0.013080 6.05885560137348 1 2 18.17656680412044
pair_coeff 24 31 wf/cut 0.014572 6.219293562690735 1 2 18.657880688072204
pair_coeff 24 32 wf/cut 0.080621 6.077365593674358 1 2 18.232096781023074
pair_coeff 24 33 wf/cut 0.203205 6.465539023765016 1 2 19.396617071295047
pair_coeff 24 34 wf/cut 0.147841 6.248599086448351 1 2 18.745797259345053
pair_coeff 24 35 wf/cut 0.032140 5.6574738585901345 1 2 16.972421575770404
pair_coeff 24 36 wf/cut 0.139307 6.102951668547555 1 2 18.308855005642666
pair_coeff 24 37 wf/cut 0.078421 5.900160965208208 1 2 17.700482895624624
pair_coeff 24 38 wf/cut 0.038198 5.85153222065546 1 2 17.55459666196638
pair_coeff 24 39 wf/cut 0.034893 5.812153931855011 1 2 17.436461795565034
pair_coeff 24 40 wf/cut 0.010902 6.242374503621665 1 2 18.727123510864995
pair_coeff 25 25 wf/cut 0.062978 6.840818860381698 1 2 20.522456581145093
pair_coeff 25 26 wf/cut 0.123581 6.051811079871612 1 2 18.155433239614837
pair_coeff 25 27 wf/cut 0.001064 6.332285213812248 1 2 18.996855641436742
pair_coeff 25 28 wf/cut 0.001085 6.509542326637676 1 2 19.528626979913028
pair_coeff 25 29 wf/cut 0.425474 6.7877218996841355 1 2 20.363165699052406
pair_coeff 25 30 wf/cut 0.108651 6.481102402445426 1 2 19.44330720733628
pair_coeff 25 31 wf/cut 0.110142 6.647901648052044 1 2 19.94370494415613
pair_coeff 25 32 wf/cut 0.176191 6.560327886240045 1 2 19.680983658720134
pair_coeff 25 33 wf/cut 0.484160 6.953839371357665 1 2 20.861518114072993
pair_coeff 25 34 wf/cut 0.381459 6.735769622233203 1 2 20.20730886669961
pair_coeff 25 35 wf/cut 0.127710 6.1245540687340725 1 2 18.37366220620222
pair_coeff 25 36 wf/cut 0.086889 6.589926019306955 1 2 19.769778057920867
pair_coeff 25 37 wf/cut 0.173991 6.38305646617526 1 2 19.14916939852578
pair_coeff 25 38 wf/cut 0.133768 6.322442926130092 1 2 18.967328778390275
pair_coeff 25 39 wf/cut 0.130463 6.280926022691235 1 2 18.842778068073706
pair_coeff 25 40 wf/cut 0.106472 6.648355967009086 1 2 19.945067901027258
pair_coeff 26 26 wf/cut 0.034611 5.278051554722805 1 2 15.834154664168416
pair_coeff 26 27 wf/cut 0.054715 5.550632394717641 1 2 16.651897184152922
pair_coeff 26 28 wf/cut 0.057743 5.727313013729271 1 2 17.18193904118781
pair_coeff 26 29 wf/cut 0.164082 5.997401234701861 1 2 17.99220370410558
pair_coeff 26 30 wf/cut 0.019681 5.729200436106479 1 2 17.187601308319437
pair_coeff 26 31 wf/cut 0.021172 5.893502125092778 1 2 17.680506375278334
pair_coeff 26 32 wf/cut 0.087222 5.77355467816977 1 2 17.32066403450931
pair_coeff 26 33 wf/cut 0.209805 6.162846524069043 1 2 18.48853957220713
pair_coeff 26 34 wf/cut 0.154442 5.945670315140756 1 2 17.837010945422268
pair_coeff 26 35 wf/cut 0.038740 5.3486854588231765 1 2 16.04605637646953
pair_coeff 26 36 wf/cut 0.145908 5.799973083941243 1 2 17.39991925182373
pair_coeff 26 37 wf/cut 0.085022 5.596251927245512 1 2 16.788755781736537
pair_coeff 26 38 wf/cut 0.044798 5.544164768287125 1 2 16.632494304861375
pair_coeff 26 39 wf/cut 0.041494 5.504054682438701 1 2 16.512164047316105
pair_coeff 26 40 wf/cut 0.017503 5.903567074401621 1 2 17.71070122320486
pair_coeff 27 27 wf/cut 0.055422 5.8277356350076115 1 2 17.483206905022833
pair_coeff 27 28 wf/cut 0.057461 6.0048083393750415 1 2 18.014425018125124
pair_coeff 27 29 wf/cut 0.184186 6.278368151196274 1 2 18.83510445358882
pair_coeff 27 30 wf/cut 0.039785 5.986861716352022 1 2 17.960585149056065
pair_coeff 27 31 wf/cut 0.041277 6.152881477214971 1 2 18.458644431644913
pair_coeff 27 32 wf/cut 0.107326 6.053140955180234 1 2 18.159422865540705
pair_coeff 27 33 wf/cut 0.229910 6.444000765960297 1 2 19.33200229788089
pair_coeff 27 34 wf/cut 0.174546 6.226529663564308 1 2 18.679588990692924
pair_coeff 27 35 wf/cut 0.058845 5.622457081906772 1 2 16.867371245720314
pair_coeff 27 36 wf/cut 0.001228 6.080799532766481 1 2 18.242398598299445
pair_coeff 27 37 wf/cut 0.105126 5.875867449320084 1 2 17.627602347960252
pair_coeff 27 38 wf/cut 0.064903 5.819413545043322 1 2 17.458240635129968
pair_coeff 27 39 wf/cut 0.061598 5.778457730344957 1 2 17.335373191034872
pair_coeff 27 40 wf/cut 0.037607 6.155943831058615 1 2 18.467831493175847
pair_coeff 28 28 wf/cut 0.059908 6.1818125994432265 1 2 18.54543779832968
pair_coeff 28 29 wf/cut 0.187215 6.4556028384801145 1 2 19.366808515440344
pair_coeff 28 30 wf/cut 0.042814 6.162677260323304 1 2 18.488031780969912
pair_coeff 28 31 wf/cut 0.044305 6.329122536684595 1 2 18.987367610053788
pair_coeff 28 32 wf/cut 0.110354 6.230341958421634 1 2 18.691025875264902
pair_coeff 28 33 wf/cut 0.232938 6.621259842822526 1 2 19.863779528467578
pair_coeff 28 34 wf/cut 0.177574 6.403800703379438 1 2 19.211402110138312
pair_coeff 28 35 wf/cut 0.061873 5.7993639894571976 1 2 17.39809196837159
pair_coeff 28 36 wf/cut 0.001252 6.258048801889918 1 2 18.774146405669754
pair_coeff 28 37 wf/cut 0.108154 6.053088642675554 1 2 18.159265928026663
pair_coeff 28 38 wf/cut 0.067931 5.9963870692049515 1 2 17.989161207614856
pair_coeff 28 39 wf/cut 0.064626 5.955407688864699 1 2 17.866223066594095
pair_coeff 28 40 wf/cut 0.040635 6.331503643570952 1 2 18.994510930712856
pair_coeff 29 29 wf/cut 0.293553 6.734901221669089 1 2 20.204703665007266
pair_coeff 29 30 wf/cut 0.149152 6.425928662140226 1 2 19.277785986420678
pair_coeff 29 31 wf/cut 0.150644 6.592808608254519 1 2 19.77842582476356
pair_coeff 29 32 wf/cut 0.216693 6.5069139355650485 1 2 19.520741806695145
pair_coeff 29 33 wf/cut 0.339277 6.901174934210456 1 2 20.703524802631367
pair_coeff 29 34 wf/cut 0.283913 6.682893550119813 1 2 20.048680650359437
pair_coeff 29 35 wf/cut 0.168212 6.070294170144763 1 2 18.21088251043429
pair_coeff 29 36 wf/cut 0.275379 6.53700493974828 1 2 19.61101481924484
pair_coeff 29 37 wf/cut 0.214493 6.329613164394258 1 2 18.988839493182773
pair_coeff 29 38 wf/cut 0.174270 6.268290266697097 1 2 18.80487080009129
pair_coeff 29 39 wf/cut 0.170965 6.226677571408917 1 2 18.68003271422675
pair_coeff 29 40 wf/cut 0.146974 6.593018960515583 1 2 19.77905688154675
pair_coeff 30 31 wf/cut 0.006243 6.436867325811939 1 2 19.310601977435816
pair_coeff 30 32 wf/cut 0.072292 6.2043654791136875 1 2 18.613096437341063
pair_coeff 30 33 wf/cut 0.194875 6.590992227279316 1 2 19.77297668183795
pair_coeff 30 34 wf/cut 0.139512 6.374322689731052 1 2 19.122968069193156
pair_coeff 30 35 wf/cut 0.023810 5.794680761693587 1 2 17.38404228508076
pair_coeff 30 36 wf/cut 0.130978 6.228734363673756 1 2 18.68620309102127
pair_coeff 30 37 wf/cut 0.070092 6.027237821338098 1 2 18.081713464014296
pair_coeff 30 38 wf/cut 0.029868 5.985230649978958 1 2 17.955691949936874
pair_coeff 30 39 wf/cut 0.026564 5.947631895281645 1 2 17.842895685844933
pair_coeff 31 31 wf/cut 0.007734 6.567831037515117 1 2 19.703493112545353
pair_coeff 31 32 wf/cut 0.073783 6.371180012524027 1 2 19.11354003757208
pair_coeff 31 33 wf/cut 0.196367 6.757844212311977 1 2 20.273532636935933
pair_coeff 31 34 wf/cut 0.141003 6.541152469250684 1 2 19.623457407752053
pair_coeff 31 35 wf/cut 0.025302 5.958948966149641 1 2 17.87684689844892
pair_coeff 31 36 wf/cut 0.132469 6.395617784448214 1 2 19.18685335334464
pair_coeff 31 37 wf/cut 0.071583 6.194052355515639 1 2 18.58215706654692
pair_coeff 31 38 wf/cut 0.031360 6.150442231391871 1 2 18.451326694175613
pair_coeff 31 39 wf/cut 0.028055 6.1123674095484715 1 2 18.337102228645414
pair_coeff 32 32 wf/cut 0.139832 6.280338147956703 1 2 18.841014443870108
pair_coeff 32 33 wf/cut 0.262416 6.672807379130834 1 2 20.018422137392502
pair_coeff 32 34 wf/cut 0.207052 6.454996866244807 1 2 19.364990598734423
pair_coeff 32 35 wf/cut 0.091351 5.846082838683163 1 2 17.53824851604949
pair_coeff 32 36 wf/cut 0.198518 6.309181376440496 1 2 18.92754412932149
pair_coeff 32 37 wf/cut 0.137633 6.103047888395006 1 2 18.30914366518502
pair_coeff 32 38 wf/cut 0.097409 6.043739153604026 1 2 18.131217460812078
pair_coeff 32 39 wf/cut 0.094104 6.002359484884067 1 2 18.007078454652202
pair_coeff 32 40 wf/cut 0.070113 6.372029116976672 1 2 19.116087350930016
pair_coeff 33 33 wf/cut 0.385000 7.067563273437359 1 2 21.202689820312077
pair_coeff 33 34 wf/cut 0.329636 6.849136659067028 1 2 20.547409977201085
pair_coeff 33 35 wf/cut 0.213935 6.235761878631987 1 2 18.70728563589596
pair_coeff 33 36 wf/cut 0.321102 6.703247958074066 1 2 20.109743874222197
pair_coeff 33 37 wf/cut 0.260216 6.49554680247315 1 2 19.48664040741945
pair_coeff 33 38 wf/cut 0.219993 6.433800819712532 1 2 19.3014024591376
pair_coeff 33 39 wf/cut 0.216688 6.3921696304391835 1 2 19.17650889131755
pair_coeff 33 40 wf/cut 0.192697 6.757970683221281 1 2 20.273912049663842
pair_coeff 34 34 wf/cut 0.274272 6.630885251270346 1 2 19.892655753811038
pair_coeff 34 35 wf/cut 0.158571 6.018506537122348 1 2 18.055519611367043
pair_coeff 34 36 wf/cut 0.265738 6.485029527646095 1 2 19.455088582938284
pair_coeff 34 37 wf/cut 0.204852 6.27772691468288 1 2 18.83318074404864
pair_coeff 34 38 wf/cut 0.164629 6.216488307385695 1 2 18.649464922157083
pair_coeff 34 39 wf/cut 0.161324 6.17490549231641 1 2 18.52471647694923
pair_coeff 34 40 wf/cut 0.137333 6.5414250271565235 1 2 19.62427508146957
pair_coeff 35 35 wf/cut 0.042870 5.4194558891562785 1 2 16.258367667468836
pair_coeff 35 36 wf/cut 0.150037 5.8728226163551005 1 2 17.6184678490653
pair_coeff 35 37 wf/cut 0.089151 5.6688305293155095 1 2 17.006491587946527
pair_coeff 35 38 wf/cut 0.048928 5.615420402551611 1 2 16.846261207654834
pair_coeff 35 39 wf/cut 0.045623 5.575027083025114 1 2 16.725081249075345
pair_coeff 35 40 wf/cut 0.021632 5.967018638311549 1 2 17.901055914934645
pair_coeff 36 36 wf/cut 0.019052 6.339149093005715 1 2 19.017447279017144
pair_coeff 36 37 wf/cut 0.196319 6.131909094415353 1 2 18.39572728324606
pair_coeff 36 38 wf/cut 0.156095 6.07081046198845 1 2 18.21243138596535
pair_coeff 36 39 wf/cut 0.152791 6.029219810679759 1 2 18.087659432039278
pair_coeff 36 40 wf/cut 0.128800 6.395882535691026 1 2 19.187647607073078
pair_coeff 37 37 wf/cut 0.135433 5.925773208988131 1 2 17.777319626964392
pair_coeff 37 38 wf/cut 0.095209 5.866481553533799 1 2 17.599444660601396
pair_coeff 37 39 wf/cut 0.091905 5.82512551794993 1 2 17.47537655384979
pair_coeff 37 40 wf/cut 0.067914 6.194931490620908 1 2 18.584794471862722
pair_coeff 38 38 wf/cut 0.054986 5.811826808320624 1 2 17.43548042496187
pair_coeff 38 39 wf/cut 0.051681 5.771184604473262 1 2 17.313553813419787
pair_coeff 38 40 wf/cut 0.027690 6.155796177211015 1 2 18.467388531633045
pair_coeff 39 39 wf/cut 0.048377 5.730699270006254 1 2 17.192097810018762
pair_coeff 39 40 wf/cut 0.024386 6.119051758363574 1 2 18.357155275090722
pair_coeff 40 40 wf/cut 0.000395 6.921680089176746 1 11 20.76504026753024
pair_coeff 20 40 wf/cut 0.000395 6.921680089176746 1 11 20.76504026753024
pair_coeff 20 20 wf/cut 0.000395 6.921680089176746 1 11 20.76504026753024
pair_coeff 10 20 wf/cut 0.002986 6.718011650959061 1 4 20.154034952877183
pair_coeff 10 40 wf/cut 0.002986 6.718011650959061 1 4 20.154034952877183
pair_coeff 20 30 wf/cut 0.002573 6.745752996427961 1 4 20.237258989283884
pair_coeff 20 31 wf/cut 0.004064 6.883184689300606 1 4 20.649554067901818
pair_coeff 30 40 wf/cut 0.002573 6.745752996427961 1 4 20.237258989283884
pair_coeff 31 40 wf/cut 0.004064 6.883184689300606 1 4 20.649554067901818
pair_coeff 3 3 coul/debye 35.
pair_coeff 3 5 coul/debye 35.
pair_coeff 3 7 coul/debye 35.
pair_coeff 3 8 coul/debye 35.
pair_coeff 3 16 coul/debye 35.
pair_coeff 3 23 coul/debye 35.
pair_coeff 3 25 coul/debye 35.
pair_coeff 3 36 coul/debye 35.
pair_coeff 5 5 coul/debye 35.
pair_coeff 5 7 coul/debye 35.
pair_coeff 5 8 coul/debye 35.
pair_coeff 5 16 coul/debye 35.
pair_coeff 5 23 coul/debye 35.
pair_coeff 5 25 coul/debye 35.
pair_coeff 5 27 coul/debye 35.
pair_coeff 5 28 coul/debye 35.
pair_coeff 5 36 coul/debye 35.
pair_coeff 7 7 coul/debye 35.
pair_coeff 7 8 coul/debye 35.
pair_coeff 7 16 coul/debye 35.
pair_coeff 7 23 coul/debye 35.
pair_coeff 7 25 coul/debye 35.
pair_coeff 7 27 coul/debye 35.
pair_coeff 7 28 coul/debye 35.
pair_coeff 7 36 coul/debye 35.
pair_coeff 8 8 coul/debye 35.
pair_coeff 8 16 coul/debye 35.
pair_coeff 8 23 coul/debye 35.
pair_coeff 8 25 coul/debye 35.
pair_coeff 8 27 coul/debye 35.
pair_coeff 8 28 coul/debye 35.
pair_coeff 8 36 coul/debye 35.
pair_coeff 16 16 coul/debye 35.
pair_coeff 16 23 coul/debye 35.
pair_coeff 16 25 coul/debye 35.
pair_coeff 16 27 coul/debye 35.
pair_coeff 16 28 coul/debye 35.
pair_coeff 16 36 coul/debye 35.
pair_coeff 23 23 coul/debye 35.
pair_coeff 23 25 coul/debye 35.
pair_coeff 23 36 coul/debye 35.
pair_coeff 25 25 coul/debye 35.
pair_coeff 25 27 coul/debye 35.
pair_coeff 25 28 coul/debye 35.
pair_coeff 25 36 coul/debye 35.
pair_coeff 27 27 coul/debye 35.
pair_coeff 27 28 coul/debye 35.
pair_coeff 27 36 coul/debye 35.
pair_coeff 28 28 coul/debye 35.
pair_coeff 28 36 coul/debye 35.
pair_coeff 36 36 coul/debye 35.
pair_coeff 3 27 coul/debye 35.
pair_coeff 3 28 coul/debye 35.
pair_coeff 23 27 coul/debye 35.
pair_coeff 23 28 coul/debye 35.

special_bonds fene
Finding 1-2 1-3 1-4 neighbors ...
  special bond factors lj:    0        1        1       
  special bond factors coul:  0        1        1       
     2 = max # of 1-2 neighbors
     6 = max # of special neighbors
  special bonds CPU = 0.000 seconds
neighbor  3.5 multi
neigh_modify  every 10 delay 0

comm_style    tiled

timer timeout 35:50:00
New timer settings: style=normal  mode=nosync  timeout=11:50:00

velocity      all create $T 494211
velocity      all create 390 494211
fix           fxnve   all nve
fix           fxlange all langevin $T $T 40000.0 32784
fix           fxlange all langevin 390 $T 40000.0 32784
fix           fxlange all langevin 390 390 40000.0 32784

dump          1 all custom 100000 $d-$T.xyz id mol type q xu yu zu
dump          1 all custom 100000 TIA_WT-$T.xyz id mol type q xu yu zu
dump          1 all custom 100000 TIA_WT-390.xyz id mol type q xu yu zu
dump_modify   1 sort id

#compute       rad all gyration
#compute       dis all pair/local dist
#compute       maximo all reduce max c_dis
#compute       mean all reduce ave c_dis

thermo        1000000
thermo_style  custom step pe temp  press ke lx ly lz pzz  spcpu density
thermo_modify flush yes

restart      10000000 restart$T
restart      10000000 restart390

####Minimization

timestep 0.01
run 2000
Neighbor list info ...
  update every 10 steps, delay 0 steps, check yes
  max neighbors/atom: 2000, page size: 100000
  master list distance cutoff = 38.5
  ghost atom cutoff = 38.5
  binsize = 8.7926654, bins = 35 35 35
  2 neighbor lists, perpetual/occasional/extra = 2 0 0
  (1) pair wf/cut, perpetual
      attributes: half, newton on
      pair build: half/multi/newton
      stencil: half/multi/3d/newton
      bin: standard
  (2) pair coul/debye, perpetual, skip from (1)
      attributes: half, newton on
      pair build: skip
      stencil: none
      bin: none
Per MPI rank memory allocation (min/avg/max) = 8.891 | 8.953 | 9.133 Mbytes
Step PotEng Temp Press KinEng Lx Ly Lz Pzz S/CPU Density 
       0   -13.356653          390   0.44751585    111.60153          300          300          300   0.33017027            0 0.00066940445 
    2000   -11.043794    382.03686   0.42641823    109.32281          300          300          300   0.32843108    43393.467 0.00066940445 
Loop time of 0.046102 on 6 procs for 2000 steps with 97 atoms

Performance: 37.482 ns/day, 0.640 hours/ns, 43382.022 timesteps/s
99.8% CPU use with 6 MPI tasks x no OpenMP threads

MPI task timing breakdown:
Section |  min time  |  avg time  |  max time  |%varavg| %total
---------------------------------------------------------------
Pair    | 0.00052357 | 0.0033313  | 0.016828   |  10.5 |  7.23
Bond    | 6.1512e-05 | 0.00042117 | 0.0020919  |   0.0 |  0.91
Neigh   | 0          | 0          | 0          |   0.0 |  0.00
Comm    | 0.015896   | 0.037337   | 0.042327   |   5.0 | 80.99
Output  | 1.9073e-05 | 2.4398e-05 | 3.0041e-05 |   0.0 |  0.05
Modify  | 0.00026989 | 0.0020103  | 0.01032    |   8.3 |  4.36
Other   |            | 0.002978   |            |       |  6.46

Nlocal:        16.1667 ave          96 max           0 min
Histogram: 5 0 0 0 0 0 0 0 0 1
Nghost:        39.5000 ave          57 max           0 min
Histogram: 1 0 0 0 1 0 0 0 1 3
Neighs:        73.5000 ave         436 max           0 min
Histogram: 5 0 0 0 0 0 0 0 0 1

Total # of neighbors = 441
Ave neighs/atom = 4.5463918
Ave special neighs/atom = 1.9793814
Neighbor list builds = 0
Dangerous builds = 0

timestep 0.1
run 2000
Per MPI rank memory allocation (min/avg/max) = 8.891 | 8.953 | 9.133 Mbytes
Step PotEng Temp Press KinEng Lx Ly Lz Pzz S/CPU Density 
    2000   -11.043794    382.03686   0.42641823    109.32281          300          300          300   0.32843108            0 0.00066940445 
    4000    7.5941459    320.67938  -0.18948402    91.764895          300          300          300  -0.12829106    43453.708 0.00066940445 
Loop time of 0.0460351 on 6 procs for 2000 steps with 97 atoms

Performance: 375.366 ns/day, 0.064 hours/ns, 43445.156 timesteps/s
99.8% CPU use with 6 MPI tasks x no OpenMP threads

MPI task timing breakdown:
Section |  min time  |  avg time  |  max time  |%varavg| %total
---------------------------------------------------------------
Pair    | 0.00051379 | 0.0033341  | 0.016813   |  10.4 |  7.24
Bond    | 5.1975e-05 | 0.00042288 | 0.00211    |   0.0 |  0.92
Neigh   | 0          | 0          | 0          |   0.0 |  0.00
Comm    | 0.015858   | 0.037302   | 0.042252   |   5.0 | 81.03
Output  | 1.9073e-05 | 2.4199e-05 | 2.6941e-05 |   0.0 |  0.05
Modify  | 0.00021148 | 0.0019901  | 0.010316   |   8.3 |  4.32
Other   |            | 0.002962   |            |       |  6.43

Nlocal:        16.1667 ave          96 max           0 min
Histogram: 5 0 0 0 0 0 0 0 0 1
Nghost:        39.5000 ave          57 max           0 min
Histogram: 1 0 0 0 1 0 0 0 1 3
Neighs:        73.5000 ave         436 max           0 min
Histogram: 5 0 0 0 0 0 0 0 0 1

Total # of neighbors = 441
Ave neighs/atom = 4.5463918
Ave special neighs/atom = 1.9793814
Neighbor list builds = 0
Dangerous builds = 0

timestep 1
run 2000
Per MPI rank memory allocation (min/avg/max) = 8.891 | 8.953 | 9.133 Mbytes
Step PotEng Temp Press KinEng Lx Ly Lz Pzz S/CPU Density 
    4000    7.5941459    320.67938  -0.18948402    91.764895          300          300          300  -0.12829106            0 0.00066940445 
    6000    12.002743    325.74587  -0.12797431    93.214711          300          300          300  0.028104476    43404.693 0.00066940445 
Loop time of 0.0461489 on 6 procs for 2000 steps with 97 atoms

Performance: 3744.405 ns/day, 0.006 hours/ns, 43338.019 timesteps/s
99.8% CPU use with 6 MPI tasks x no OpenMP threads

MPI task timing breakdown:
Section |  min time  |  avg time  |  max time  |%varavg| %total
---------------------------------------------------------------
Pair    | 0.0005343  | 0.0032929  | 0.016445   |  10.3 |  7.14
Bond    | 5.9843e-05 | 0.00042276 | 0.0020692  |   0.0 |  0.92
Neigh   | 0.00027871 | 0.00028348 | 0.00028944 |   0.0 |  0.61
Comm    | 0.016103   | 0.037119   | 0.042049   |   4.9 | 80.43
Output  | 2.2888e-05 | 3.8544e-05 | 9.203e-05  |   0.0 |  0.08
Modify  | 0.0002389  | 0.0020141  | 0.01026    |   8.2 |  4.36
Other   |            | 0.002978   |            |       |  6.45

Nlocal:        16.1667 ave          95 max           0 min
Histogram: 5 0 0 0 0 0 0 0 0 1
Nghost:        38.8333 ave          58 max           0 min
Histogram: 1 0 0 0 1 0 0 0 3 1
Neighs:        73.6667 ave         431 max           0 min
Histogram: 5 0 0 0 0 0 0 0 0 1

Total # of neighbors = 442
Ave neighs/atom = 4.5567010
Ave special neighs/atom = 1.9793814
Neighbor list builds = 5
Dangerous builds = 0

####Collapse the IDR

timestep 10
run 1000000
Per MPI rank memory allocation (min/avg/max) = 8.892 | 8.974 | 9.133 Mbytes
Step PotEng Temp Press KinEng Lx Ly Lz Pzz S/CPU Density 
    6000    12.002743    325.74587  -0.12797431    93.214711          300          300          300  0.028104476            0 0.00066940445 
 1000000    15.584627    380.57017  -0.11105906    108.90311          300          300          300  -0.14521361    26492.494 0.00066940445 
 1006000    30.256212    364.45941 -0.018009957    104.29289          300          300          300 -0.093237915    30732.493 0.00066940445 
Loop time of 37.7153 on 6 procs for 1000000 steps with 97 atoms

Performance: 22908.462 ns/day, 0.001 hours/ns, 26514.424 timesteps/s
99.7% CPU use with 6 MPI tasks x no OpenMP threads

MPI task timing breakdown:
Section |  min time  |  avg time  |  max time  |%varavg| %total
---------------------------------------------------------------
Pair    | 1.8987     | 4.539      | 8.78       | 114.6 | 12.03
Bond    | 0.10562    | 0.21477    | 0.39766    |  22.4 |  0.57
Neigh   | 1.9996     | 2.0211     | 2.0369     |   0.9 |  5.36
Comm    | 23.715     | 28.691     | 31.829     |  53.8 | 76.07
Output  | 0.0011687  | 0.0013475  | 0.0020475  |   0.9 |  0.00
Modify  | 0.46479    | 1.012      | 1.9322     |  51.4 |  2.68
Other   |            | 1.236      |            |       |  3.28

Nlocal:        16.1667 ave          81 max           0 min
Histogram: 4 1 0 0 0 0 0 0 0 1
Nghost:        61.8333 ave         152 max          14 min
Histogram: 2 0 2 0 0 1 0 0 0 1
Neighs:        257.000 ave        1401 max           0 min
Histogram: 4 1 0 0 0 0 0 0 0 1

Total # of neighbors = 1542
Ave neighs/atom = 15.896907
Ave special neighs/atom = 1.9793814
Neighbor list builds = 29134
Dangerous builds = 0

####Replicate initial system

replicate 4 4 4
Replicating atoms ...
  orthogonal box = (0.0000000 0.0000000 0.0000000) to (1200.0000 1200.0000 1200.0000)
  1 by 2 by 3 MPI processor grid
  6208 atoms
  6144 bonds
Finding 1-2 1-3 1-4 neighbors ...
  special bond factors lj:    0        1        1       
  special bond factors coul:  0        1        1       
     2 = max # of 1-2 neighbors
     6 = max # of special neighbors
  special bonds CPU = 0.000 seconds
  replicate CPU = 0.002 seconds

run 1
Per MPI rank memory allocation (min/avg/max) = 11.63 | 11.65 | 11.67 Mbytes
Step PotEng Temp Press KinEng Lx Ly Lz Pzz S/CPU Density 
 1006000    1936.3976    360.76021 -0.018009957    6674.7449         1200         1200         1200 -0.093237915            0 0.00066940445 
 1006001    1987.3438    357.80923 -0.0018224105    6620.1463         1200         1200         1200 -0.081722535    1282.2696 0.00066940445 
Loop time of 0.000855605 on 6 procs for 1 steps with 6208 atoms

Performance: 1009.812 ns/day, 0.024 hours/ns, 1168.764 timesteps/s
99.7% CPU use with 6 MPI tasks x no OpenMP threads

MPI task timing breakdown:
Section |  min time  |  avg time  |  max time  |%varavg| %total
---------------------------------------------------------------
Pair    | 0.00030208 | 0.00040138 | 0.00060105 |   0.0 | 46.91
Bond    | 1.3113e-05 | 1.8318e-05 | 2.7895e-05 |   0.0 |  2.14
Neigh   | 0          | 0          | 0          |   0.0 |  0.00
Comm    | 4.4107e-05 | 0.00024811 | 0.00034976 |   0.0 | 29.00
Output  | 2.8133e-05 | 7.1565e-05 | 0.00014615 |   0.0 |  8.36
Modify  | 4.1008e-05 | 5.432e-05  | 8.0824e-05 |   0.0 |  6.35
Other   |            | 6.191e-05  |            |       |  7.24

Nlocal:        1034.67 ave        1552 max         776 min
Histogram: 4 0 0 0 0 0 0 0 0 2
Nghost:        980.333 ave        1208 max         739 min
Histogram: 2 0 0 0 0 2 0 0 0 2
Neighs:        16533.3 ave       24800 max       12400 min
Histogram: 4 0 0 0 0 0 0 0 0 2

Total # of neighbors = 99200
Ave neighs/atom = 15.979381
Ave special neighs/atom = 1.9793814
Neighbor list builds = 0
Dangerous builds = 0

####Smaller box size

#change_box all x final 0 300 y final 0 300 z final 0 300 remap

####Loop to compress

variable myDensity equal density
label loop
variable a loop 1000
change_box all x scale 0.95 y scale 0.95 z scale 0.95 remap
Changing box ...
  orthogonal box = (30.000000 0.0000000 0.0000000) to (1170.0000 1200.0000 1200.0000)
  orthogonal box = (30.000000 30.000000 0.0000000) to (1170.0000 1170.0000 1200.0000)
  orthogonal box = (30.000000 30.000000 30.000000) to (1170.0000 1170.0000 1170.0000)
run 8000
Per MPI rank memory allocation (min/avg/max) = 11.63 | 11.65 | 11.68 Mbytes
Step PotEng Temp Press KinEng Lx Ly Lz Pzz S/CPU Density 
 1006001    4323.6903    357.80923    1.8542623    6620.1463         1140         1140         1140    1.7404955            0 0.0007807604 
 1014001    1262.7739    394.44335 0.0002585854    7297.9467         1140         1140         1140 -0.0045619171    1441.4237 0.0007807604 
Loop time of 5.5501 on 6 procs for 8000 steps with 6208 atoms

Performance: 1245.382 ns/day, 0.019 hours/ns, 1441.415 timesteps/s
99.7% CPU use with 6 MPI tasks x no OpenMP threads

MPI task timing breakdown:
Section |  min time  |  avg time  |  max time  |%varavg| %total
---------------------------------------------------------------
Pair    | 1.8589     | 2.5904     | 3.8656     |  55.5 | 46.67
Bond    | 0.064002   | 0.086389   | 0.13032    |  10.3 |  1.56
Neigh   | 0.52686    | 0.52867    | 0.53072    |   0.2 |  9.53
Comm    | 0.35525    | 1.8476     | 2.6916     |  76.7 | 33.29
Output  | 4.1008e-05 | 7.5221e-05 | 0.00010991 |   0.0 |  0.00
Modify  | 0.3215     | 0.43189    | 0.65068    |  23.0 |  7.78
Other   |            | 0.06507    |            |       |  1.17

Nlocal:        1034.67 ave        1590 max         744 min
Histogram: 4 0 0 0 0 0 0 0 0 2
Nghost:        1052.17 ave        1216 max         841 min
Histogram: 2 0 0 0 0 1 0 0 1 2
Neighs:        14905.0 ave       22877 max        9862 min
Histogram: 1 3 0 0 0 0 0 0 1 1

Total # of neighbors = 89430
Ave neighs/atom = 14.405606
Ave special neighs/atom = 1.9793814
Neighbor list builds = 357
Dangerous builds = 0

if "${myDensity} > 1.0" then "jump SELF break"

next a
jump SELF loop
variable a loop 1000
change_box all x scale 0.95 y scale 0.95 z scale 0.95 remap
Changing box ...
  orthogonal box = (58.500000 30.000000 30.000000) to (1141.5000 1170.0000 1170.0000)
  orthogonal box = (58.500000 58.500000 30.000000) to (1141.5000 1141.5000 1170.0000)
  orthogonal box = (58.500000 58.500000 58.500000) to (1141.5000 1141.5000 1141.5000)
run 8000
Per MPI rank memory allocation (min/avg/max) = 11.63 | 11.65 | 11.68 Mbytes
Step PotEng Temp Press KinEng Lx Ly Lz Pzz S/CPU Density 
 1014001     3307.255    394.44335     1.983186    7297.9467         1083         1083         1083    1.9733799            0 0.0009106405 
 1022001    1163.6339    393.54411  0.026986471     7281.309         1083         1083         1083  0.024197596    1449.4027 0.0009106405 
Loop time of 5.51955 on 6 procs for 8000 steps with 6208 atoms

Performance: 1252.276 ns/day, 0.019 hours/ns, 1449.394 timesteps/s
99.6% CPU use with 6 MPI tasks x no OpenMP threads

MPI task timing breakdown:
Section |  min time  |  avg time  |  max time  |%varavg| %total
---------------------------------------------------------------
Pair    | 1.7177     | 2.4025     | 3.8116     |  53.7 | 43.53
Bond    | 0.064619   | 0.086476   | 0.13809    |  10.3 |  1.57
Neigh   | 0.53429    | 0.53714    | 0.54017    |   0.3 |  9.73
Comm    | 0.3262     | 1.9891     | 2.7757     |  69.5 | 36.04
Output  | 4.2915e-05 | 8.2652e-05 | 0.00011396 |   0.0 |  0.00
Modify  | 0.32435    | 0.43175    | 0.68561    |  22.7 |  7.82
Other   |            | 0.07254    |            |       |  1.31

Nlocal:        1034.67 ave        1694 max         770 min
Histogram: 4 0 0 0 0 0 1 0 0 1
Nghost:        1066.50 ave        1361 max         803 min
Histogram: 2 0 0 0 1 0 2 0 0 1
Neighs:        15748.8 ave       26740 max       11395 min
Histogram: 4 0 0 0 0 1 0 0 0 1

Total # of neighbors = 94493
Ave neighs/atom = 15.221166
Ave special neighs/atom = 1.9793814
Neighbor list builds = 365
Dangerous builds = 0

if "${myDensity} > 1.0" then "jump SELF break"

next a
jump SELF loop
variable a loop 1000
change_box all x scale 0.95 y scale 0.95 z scale 0.95 remap
Changing box ...
  orthogonal box = (85.575000 58.500000 58.500000) to (1114.4250 1141.5000 1141.5000)
  orthogonal box = (85.575000 85.575000 58.500000) to (1114.4250 1114.4250 1141.5000)
  orthogonal box = (85.575000 85.575000 85.575000) to (1114.4250 1114.4250 1114.4250)
run 8000
Per MPI rank memory allocation (min/avg/max) = 11.63 | 11.65 | 11.68 Mbytes
Step PotEng Temp Press KinEng Lx Ly Lz Pzz S/CPU Density 
 1022001    3300.9467    393.54411     2.359605     7281.309      1028.85      1028.85      1028.85    2.3368427            0 0.0010621263 
 1030001    1263.9574    403.16806 -0.024209134    7459.3704      1028.85      1028.85      1028.85 0.0059838073    1347.2575 0.0010621263 
Loop time of 5.9381 on 6 procs for 8000 steps with 6208 atoms

Performance: 1164.009 ns/day, 0.021 hours/ns, 1347.233 timesteps/s
99.7% CPU use with 6 MPI tasks x no OpenMP threads

MPI task timing breakdown:
Section |  min time  |  avg time  |  max time  |%varavg| %total
---------------------------------------------------------------
Pair    | 1.7507     | 2.3897     | 4.2113     |  59.7 | 40.24
Bond    | 0.06545    | 0.086446   | 0.13766    |   9.5 |  1.46
Neigh   | 0.5436     | 0.54574    | 0.54836    |   0.3 |  9.19
Comm    | 0.33761    | 2.4111     | 3.1426     |  68.2 | 40.60
Output  | 4.2915e-05 | 9.2626e-05 | 0.00018883 |   0.0 |  0.00
Modify  | 0.32353    | 0.43156    | 0.6866     |  21.2 |  7.27
Other   |            | 0.0734     |            |       |  1.24

Nlocal:        1034.67 ave        1662 max         742 min
Histogram: 2 2 0 0 0 1 0 0 0 1
Nghost:        1100.33 ave        1456 max         721 min
Histogram: 1 0 0 0 2 1 1 0 0 1
Neighs:        14981.5 ave       25957 max       10503 min
Histogram: 4 0 0 0 1 0 0 0 0 1

Total # of neighbors = 89889
Ave neighs/atom = 14.479543
Ave special neighs/atom = 1.9793814
Neighbor list builds = 369
Dangerous builds = 0

if "${myDensity} > 1.0" then "jump SELF break"

next a
jump SELF loop
variable a loop 1000
change_box all x scale 0.95 y scale 0.95 z scale 0.95 remap
Changing box ...
  orthogonal box = (111.29625 85.575000 85.575000) to (1088.7037 1114.4250 1114.4250)
  orthogonal box = (111.29625 111.29625 85.575000) to (1088.7037 1088.7037 1114.4250)
  orthogonal box = (111.29625 111.29625 111.29625) to (1088.7037 1088.7037 1088.7037)
run 8000
Per MPI rank memory allocation (min/avg/max) = 11.63 | 11.65 | 11.68 Mbytes
Step PotEng Temp Press KinEng Lx Ly Lz Pzz S/CPU Density 
 1030001    3224.9256    403.16806    2.6617837    7459.3704     977.4075     977.4075     977.4075    2.6998515            0 0.0012388118 
 1038001    1060.4986    395.48212 0.0035470523     7317.166     977.4075     977.4075     977.4075  0.023095311    1388.3052 0.0012388118 
Loop time of 5.76245 on 6 procs for 8000 steps with 6208 atoms

Performance: 1199.489 ns/day, 0.020 hours/ns, 1388.297 timesteps/s
99.7% CPU use with 6 MPI tasks x no OpenMP threads

MPI task timing breakdown:
Section |  min time  |  avg time  |  max time  |%varavg| %total
---------------------------------------------------------------
Pair    | 1.8064     | 2.4424     | 4.0896     |  52.8 | 42.39
Bond    | 0.062259   | 0.08626    | 0.13522    |   9.0 |  1.50
Neigh   | 0.50595    | 0.50755    | 0.50967    |   0.2 |  8.81
Comm    | 0.33515    | 2.2229     | 2.9628     |  63.9 | 38.58
Output  | 3.9816e-05 | 7.7566e-05 | 0.00011206 |   0.0 |  0.00
Modify  | 0.31263    | 0.43222    | 0.67619    |  20.0 |  7.50
Other   |            | 0.07104    |            |       |  1.23

Nlocal:        1034.67 ave        1614 max         754 min
Histogram: 2 2 0 0 0 0 1 0 0 1
Nghost:        1079.83 ave        1413 max         794 min
Histogram: 1 0 0 2 1 0 1 0 0 1
Neighs:        15446.7 ave       25158 max       11768 min
Histogram: 3 1 0 0 1 0 0 0 0 1

Total # of neighbors = 92680
Ave neighs/atom = 14.929124
Ave special neighs/atom = 1.9793814
Neighbor list builds = 360
Dangerous builds = 0

if "${myDensity} > 1.0" then "jump SELF break"

next a
jump SELF loop
variable a loop 1000
change_box all x scale 0.95 y scale 0.95 z scale 0.95 remap
Changing box ...
  orthogonal box = (135.73144 111.29625 111.29625) to (1064.2686 1088.7037 1088.7037)
  orthogonal box = (135.73144 135.73144 111.29625) to (1064.2686 1064.2686 1088.7037)
  orthogonal box = (135.73144 135.73144 135.73144) to (1064.2686 1064.2686 1064.2686)
run 8000
Per MPI rank memory allocation (min/avg/max) = 11.63 | 11.65 | 11.68 Mbytes
Step PotEng Temp Press KinEng Lx Ly Lz Pzz S/CPU Density 
 1038001    3094.6438    395.48212    3.1327074     7317.166    928.53712    928.53712    928.53712     3.106131            0 0.0014448891 
 1046001    1198.4735    401.90977 -0.047489244    7436.0896    928.53712    928.53712    928.53712 -0.088456891    1530.3228 0.0014448891 
Loop time of 5.22769 on 6 procs for 8000 steps with 6208 atoms

Performance: 1322.191 ns/day, 0.018 hours/ns, 1530.313 timesteps/s
99.7% CPU use with 6 MPI tasks x no OpenMP threads

MPI task timing breakdown:
Section |  min time  |  avg time  |  max time  |%varavg| %total
---------------------------------------------------------------
Pair    | 1.6068     | 2.3718     | 3.6209     |  43.0 | 45.37
Bond    | 0.064465   | 0.086121   | 0.13229    |   8.2 |  1.65
Neigh   | 0.464      | 0.46529    | 0.46712    |   0.2 |  8.90
Comm    | 0.33247    | 1.8058     | 2.6787     |  57.9 | 34.54
Output  | 4.0054e-05 | 7.1724e-05 | 0.00010204 |   0.0 |  0.00
Modify  | 0.32479    | 0.43138    | 0.65863    |  18.2 |  8.25
Other   |            | 0.06725    |            |       |  1.29

Nlocal:        1034.67 ave        1552 max         797 min
Histogram: 2 2 0 0 0 1 0 0 0 1
Nghost:        992.333 ave        1293 max         776 min
Histogram: 2 1 0 0 0 1 0 1 0 1
Neighs:        15007.0 ave       21368 max       11566 min
Histogram: 2 1 1 0 0 0 1 0 0 1

Total # of neighbors = 90042
Ave neighs/atom = 14.504188
Ave special neighs/atom = 1.9793814
Neighbor list builds = 359
Dangerous builds = 0

if "${myDensity} > 1.0" then "jump SELF break"

next a
jump SELF loop
variable a loop 1000
change_box all x scale 0.95 y scale 0.95 z scale 0.95 remap
Changing box ...
  orthogonal box = (158.94487 135.73144 135.73144) to (1041.0551 1064.2686 1064.2686)
  orthogonal box = (158.94487 158.94487 135.73144) to (1041.0551 1041.0551 1064.2686)
  orthogonal box = (158.94487 158.94487 158.94487) to (1041.0551 1041.0551 1041.0551)
run 8000
Per MPI rank memory allocation (min/avg/max) = 11.63 | 11.65 | 11.68 Mbytes
Step PotEng Temp Press KinEng Lx Ly Lz Pzz S/CPU Density 
 1046001    3144.4366    401.90977    3.6164183    7436.0896    882.11027    882.11027    882.11027    3.6333834            0 0.0016852475 
 1054001     1214.834    392.85728 -0.030928506    7268.6014    882.11027    882.11027    882.11027 -0.018845559    1719.8542 0.0016852475 
Loop time of 4.65159 on 6 procs for 8000 steps with 6208 atoms

Performance: 1485.944 ns/day, 0.016 hours/ns, 1719.842 timesteps/s
99.7% CPU use with 6 MPI tasks x no OpenMP threads

MPI task timing breakdown:
Section |  min time  |  avg time  |  max time  |%varavg| %total
---------------------------------------------------------------
Pair    | 1.6467     | 2.3315     | 3.2011     |  36.5 | 50.12
Bond    | 0.063133   | 0.086142   | 0.12057    |   7.1 |  1.85
Neigh   | 0.41691    | 0.41789    | 0.41957    |   0.2 |  8.98
Comm    | 0.29382    | 1.3312     | 2.1317     |  57.1 | 28.62
Output  | 3.9101e-05 | 6.2188e-05 | 9.7036e-05 |   0.0 |  0.00
Modify  | 0.31826    | 0.43137    | 0.60102    |  15.8 |  9.27
Other   |            | 0.05348    |            |       |  1.15

Nlocal:        1034.67 ave        1382 max         712 min
Histogram: 1 0 1 2 0 0 0 0 0 2
Nghost:        1003.17 ave        1218 max         802 min
Histogram: 1 0 1 1 0 1 1 0 0 1
Neighs:        15089.0 ave       21675 max       10074 min
Histogram: 1 0 2 1 0 0 0 1 0 1

Total # of neighbors = 90534
Ave neighs/atom = 14.583441
Ave special neighs/atom = 1.9793814
Neighbor list builds = 362
Dangerous builds = 0

if "${myDensity} > 1.0" then "jump SELF break"

next a
jump SELF loop
variable a loop 1000
change_box all x scale 0.95 y scale 0.95 z scale 0.95 remap
Changing box ...
  orthogonal box = (180.99762 158.94487 158.94487) to (1019.0024 1041.0551 1041.0551)
  orthogonal box = (180.99762 180.99762 158.94487) to (1019.0024 1019.0024 1041.0551)
  orthogonal box = (180.99762 180.99762 180.99762) to (1019.0024 1019.0024 1019.0024)
run 8000
Per MPI rank memory allocation (min/avg/max) = 11.63 | 11.65 | 11.68 Mbytes
Step PotEng Temp Press KinEng Lx Ly Lz Pzz S/CPU Density 
 1054001    3219.5543    392.85728    4.2541849    7268.6014    838.00476    838.00476    838.00476    4.2619807            0 0.0019655898 
 1062001    1108.8704    397.04883 -0.032594188    7346.1529    838.00476    838.00476    838.00476   0.02894044    1757.1786 0.0019655898 
Loop time of 4.55279 on 6 procs for 8000 steps with 6208 atoms

Performance: 1518.189 ns/day, 0.016 hours/ns, 1757.164 timesteps/s
99.7% CPU use with 6 MPI tasks x no OpenMP threads

MPI task timing breakdown:
Section |  min time  |  avg time  |  max time  |%varavg| %total
---------------------------------------------------------------
Pair    | 1.6123     | 2.3445     | 3.1923     |  36.5 | 51.50
Bond    | 0.060306   | 0.086077   | 0.1116     |   6.4 |  1.89
Neigh   | 0.39331    | 0.39462    | 0.3959     |   0.2 |  8.67
Comm    | 0.28843    | 1.2524     | 2.114      |  58.0 | 27.51
Output  | 4.2915e-05 | 6.2982e-05 | 9.8944e-05 |   0.0 |  0.00
Modify  | 0.30431    | 0.43138    | 0.55805    |  14.1 |  9.48
Other   |            | 0.04372    |            |       |  0.96

Nlocal:        1034.67 ave        1302 max         770 min
Histogram: 1 0 0 3 0 0 0 0 0 2
Nghost:        998.000 ave        1154 max         940 min
Histogram: 3 1 0 0 1 0 0 0 0 1
Neighs:        14899.8 ave       19969 max       11251 min
Histogram: 1 2 1 0 0 0 0 0 0 2

Total # of neighbors = 89399
Ave neighs/atom = 14.400612
Ave special neighs/atom = 1.9793814
Neighbor list builds = 360
Dangerous builds = 0

if "${myDensity} > 1.0" then "jump SELF break"

next a
jump SELF loop
variable a loop 1000
change_box all x scale 0.95 y scale 0.95 z scale 0.95 remap
Changing box ...
  orthogonal box = (201.94774 180.99762 180.99762) to (998.05226 1019.0024 1019.0024)
  orthogonal box = (201.94774 201.94774 180.99762) to (998.05226 998.05226 1019.0024)
  orthogonal box = (201.94774 201.94774 201.94774) to (998.05226 998.05226 998.05226)
run 8000
Per MPI rank memory allocation (min/avg/max) = 11.63 | 11.65 | 11.68 Mbytes
Step PotEng Temp Press KinEng Lx Ly Lz Pzz S/CPU Density 
 1062001    3114.6158    397.04883    4.9911591    7346.1529    796.10452    796.10452    796.10452    5.0326259            0 0.0022925672 
 1070001    1204.6924    402.15509 -0.0015958981    7440.6285    796.10452    796.10452    796.10452  -0.03505552    1784.8163 0.0022925672 
Loop time of 4.48229 on 6 procs for 8000 steps with 6208 atoms

Performance: 1542.070 ns/day, 0.016 hours/ns, 1784.804 timesteps/s
99.7% CPU use with 6 MPI tasks x no OpenMP threads

MPI task timing breakdown:
Section |  min time  |  avg time  |  max time  |%varavg| %total
---------------------------------------------------------------
Pair    | 1.9119     | 2.4017     | 3.1523     |  27.4 | 53.58
Bond    | 0.067405   | 0.086002   | 0.10846    |   5.1 |  1.92
Neigh   | 0.38603    | 0.38674    | 0.38752    |   0.1 |  8.63
Comm    | 0.27892    | 1.1363     | 1.719      |  46.5 | 25.35
Output  | 4.1008e-05 | 6.1393e-05 | 9.1076e-05 |   0.0 |  0.00
Modify  | 0.33978    | 0.4316     | 0.53965    |  11.2 |  9.63
Other   |            | 0.03994    |            |       |  0.89

Nlocal:        1034.67 ave        1326 max         817 min
Histogram: 1 0 2 1 0 0 0 1 0 1
Nghost:        992.833 ave        1139 max         907 min
Histogram: 1 1 0 3 0 0 0 0 0 1
Neighs:        15270.7 ave       19672 max       12901 min
Histogram: 1 2 0 0 2 0 0 0 0 1

Total # of neighbors = 91624
Ave neighs/atom = 14.759021
Ave special neighs/atom = 1.9793814
Neighbor list builds = 367
Dangerous builds = 0

if "${myDensity} > 1.0" then "jump SELF break"

next a
jump SELF loop
variable a loop 1000
change_box all x scale 0.95 y scale 0.95 z scale 0.95 remap
Changing box ...
  orthogonal box = (221.85035 201.94774 201.94774) to (978.14965 998.05226 998.05226)
  orthogonal box = (221.85035 221.85035 201.94774) to (978.14965 978.14965 998.05226)
  orthogonal box = (221.85035 221.85035 221.85035) to (978.14965 978.14965 978.14965)
run 8000
Per MPI rank memory allocation (min/avg/max) = 11.63 | 11.65 | 11.68 Mbytes
Step PotEng Temp Press KinEng Lx Ly Lz Pzz S/CPU Density 
 1070001    3230.7096    402.15509    5.8186328    7440.6285    756.29929    756.29929    756.29929    5.8879202            0 0.0026739375 
 1078001    1105.2283    398.43998  -0.04137578    7371.8918    756.29929    756.29929    756.29929 -0.052111058    1884.9764 0.0026739375 
Loop time of 4.24412 on 6 procs for 8000 steps with 6208 atoms

Performance: 1628.606 ns/day, 0.015 hours/ns, 1884.961 timesteps/s
99.7% CPU use with 6 MPI tasks x no OpenMP threads

MPI task timing breakdown:
Section |  min time  |  avg time  |  max time  |%varavg| %total
---------------------------------------------------------------
Pair    | 1.9082     | 2.3051     | 2.8912     |  19.7 | 54.31
Bond    | 0.068255   | 0.085958   | 0.11149    |   4.8 |  2.03
Neigh   | 0.3763     | 0.37681    | 0.37787    |   0.1 |  8.88
Comm    | 0.28828    | 0.99855    | 1.4834     |  36.6 | 23.53
Output  | 4.1962e-05 | 6.3578e-05 | 9.2983e-05 |   0.0 |  0.00
Modify  | 0.34482    | 0.4324     | 0.55889    |  10.6 | 10.19
Other   |            | 0.04528    |            |       |  1.07

Nlocal:        1034.67 ave        1364 max         820 min
Histogram: 1 0 2 1 0 1 0 0 0 1
Nghost:        979.833 ave        1178 max         877 min
Histogram: 2 0 0 3 0 0 0 0 0 1
Neighs:        14947.3 ave       17657 max       12574 min
Histogram: 1 0 2 0 0 0 2 0 0 1

Total # of neighbors = 89684
Ave neighs/atom = 14.446521
Ave special neighs/atom = 1.9793814
Neighbor list builds = 369
Dangerous builds = 0

if "${myDensity} > 1.0" then "jump SELF break"

next a
jump SELF loop
variable a loop 1000
change_box all x scale 0.95 y scale 0.95 z scale 0.95 remap
Changing box ...
  orthogonal box = (240.75784 221.85035 221.85035) to (959.24216 978.14965 978.14965)
  orthogonal box = (240.75784 240.75784 221.85035) to (959.24216 959.24216 978.14965)
  orthogonal box = (240.75784 240.75784 240.75784) to (959.24216 959.24216 959.24216)
run 8000
Per MPI rank memory allocation (min/avg/max) = 11.63 | 11.65 | 11.68 Mbytes
Step PotEng Temp Press KinEng Lx Ly Lz Pzz S/CPU Density 
 1078001    3091.8632    398.43998    6.7181206    7371.8918    718.48433    718.48433    718.48433     6.600194            0 0.0031187491 
 1086001    1218.0905    395.81361  -0.13787895     7323.299    718.48433    718.48433    718.48433  -0.10025564    1859.6582 0.0031187491 
Loop time of 4.30197 on 6 procs for 8000 steps with 6208 atoms

Performance: 1606.704 ns/day, 0.015 hours/ns, 1859.612 timesteps/s
99.7% CPU use with 6 MPI tasks x no OpenMP threads

MPI task timing breakdown:
Section |  min time  |  avg time  |  max time  |%varavg| %total
---------------------------------------------------------------
Pair    | 1.985      | 2.2936     | 2.9329     |  20.9 | 53.32
Bond    | 0.07053    | 0.085941   | 0.11529    |   4.9 |  2.00
Neigh   | 0.3703     | 0.37186    | 0.37384    |   0.2 |  8.64
Comm    | 0.28796    | 1.0695     | 1.4558     |  36.9 | 24.86
Output  | 3.8862e-05 | 7.2916e-05 | 0.00015998 |   0.0 |  0.00
Modify  | 0.35646    | 0.43217    | 0.57603    |  10.7 | 10.05
Other   |            | 0.04881    |            |       |  1.13

Nlocal:        1034.67 ave        1365 max         891 min
Histogram: 2 1 1 1 0 0 0 0 0 1
Nghost:        1080.17 ave        1325 max         832 min
Histogram: 1 0 1 0 0 1 2 0 0 1
Neighs:        14552.8 ave       19656 max       12844 min
Histogram: 3 1 1 0 0 0 0 0 0 1

Total # of neighbors = 87317
Ave neighs/atom = 14.065238
Ave special neighs/atom = 1.9793814
Neighbor list builds = 366
Dangerous builds = 0

if "${myDensity} > 1.0" then "jump SELF break"

next a
jump SELF loop
variable a loop 1000
change_box all x scale 0.95 y scale 0.95 z scale 0.95 remap
Changing box ...
  orthogonal box = (258.71994 240.75784 240.75784) to (941.28006 959.24216 959.24216)
  orthogonal box = (258.71994 258.71994 240.75784) to (941.28006 941.28006 959.24216)
  orthogonal box = (258.71994 258.71994 258.71994) to (941.28006 941.28006 941.28006)
run 8000
Per MPI rank memory allocation (min/avg/max) = 11.63 | 11.65 | 11.68 Mbytes
Step PotEng Temp Press KinEng Lx Ly Lz Pzz S/CPU Density 
 1086001     3143.183    395.81361    7.7554832     7323.299    682.56011    682.56011    682.56011    7.7979178            0 0.0036375554 
 1094001      1200.15    393.40303 -0.036825818    7278.6988    682.56011    682.56011    682.56011  0.040617911    1887.2857 0.0036375554 
Loop time of 4.23892 on 6 procs for 8000 steps with 6208 atoms

Performance: 1630.602 ns/day, 0.015 hours/ns, 1887.271 timesteps/s
99.7% CPU use with 6 MPI tasks x no OpenMP threads

MPI task timing breakdown:
Section |  min time  |  avg time  |  max time  |%varavg| %total
---------------------------------------------------------------
Pair    | 1.9359     | 2.3537     | 2.9249     |  20.7 | 55.53
Bond    | 0.072504   | 0.085943   | 0.10612    |   3.8 |  2.03
Neigh   | 0.35179    | 0.35312    | 0.35496    |   0.2 |  8.33
Comm    | 0.30859    | 0.97667    | 1.4645     |  37.5 | 23.04
Output  | 3.7909e-05 | 5.3287e-05 | 8.5115e-05 |   0.0 |  0.00
Modify  | 0.36424    | 0.43145    | 0.52915    |   8.2 | 10.18
Other   |            | 0.03799    |            |       |  0.90

Nlocal:        1034.67 ave        1206 max         851 min
Histogram: 1 0 0 2 0 1 0 0 0 2
Nghost:        1041.33 ave        1263 max         826 min
Histogram: 1 0 0 1 2 0 1 0 0 1
Neighs:        15015.7 ave       17486 max       12340 min
Histogram: 1 1 0 0 1 1 0 0 0 2

Total # of neighbors = 90094
Ave neighs/atom = 14.512564
Ave special neighs/atom = 1.9793814
Neighbor list builds = 357
Dangerous builds = 0

if "${myDensity} > 1.0" then "jump SELF break"

next a
jump SELF loop
variable a loop 1000
change_box all x scale 0.95 y scale 0.95 z scale 0.95 remap
Changing box ...
  orthogonal box = (275.78395 258.71994 258.71994) to (924.21605 941.28006 941.28006)
  orthogonal box = (275.78395 275.78395 258.71994) to (924.21605 924.21605 941.28006)
  orthogonal box = (275.78395 275.78395 275.78395) to (924.21605 924.21605 924.21605)
run 8000
Per MPI rank memory allocation (min/avg/max) = 11.64 | 11.65 | 11.68 Mbytes
Step PotEng Temp Press KinEng Lx Ly Lz Pzz S/CPU Density 
 1094001     3232.149    393.40303    9.2434533    7278.6988    648.43211    648.43211    648.43211    9.2990033            0 0.0042426656 
 1102001    1138.9544    397.34664  0.064129962    7351.6631    648.43211    648.43211    648.43211    0.1164082    1835.2593 0.0042426656 
Loop time of 4.35909 on 6 procs for 8000 steps with 6208 atoms

Performance: 1585.653 ns/day, 0.015 hours/ns, 1835.247 timesteps/s
99.6% CPU use with 6 MPI tasks x no OpenMP threads

MPI task timing breakdown:
Section |  min time  |  avg time  |  max time  |%varavg| %total
---------------------------------------------------------------
Pair    | 1.9953     | 2.3737     | 3.0443     |  23.3 | 54.45
Bond    | 0.070832   | 0.085967   | 0.10525    |   4.1 |  1.97
Neigh   | 0.35368    | 0.35502    | 0.3568     |   0.2 |  8.14
Comm    | 0.30771    | 1.0701     | 1.525      |  40.1 | 24.55
Output  | 0.003288   | 0.0034402  | 0.0036459  |   0.2 |  0.08
Modify  | 0.35824    | 0.43171    | 0.5251     |   8.9 |  9.90
Other   |            | 0.03917    |            |       |  0.90

Nlocal:        1034.67 ave        1342 max         814 min
Histogram: 1 2 0 0 0 1 1 0 0 1
Nghost:        1086.17 ave        1323 max         924 min
Histogram: 2 1 0 0 0 1 1 0 0 1
Neighs:        15205.8 ave       21616 max       12195 min
Histogram: 1 3 0 0 1 0 0 0 0 1

Total # of neighbors = 91235
Ave neighs/atom = 14.696360
Ave special neighs/atom = 1.9793814
Neighbor list builds = 361
Dangerous builds = 0

if "${myDensity} > 1.0" then "jump SELF break"

next a
jump SELF loop
variable a loop 1000
change_box all x scale 0.95 y scale 0.95 z scale 0.95 remap
Changing box ...
  orthogonal box = (291.99475 275.78395 275.78395) to (908.00525 924.21605 924.21605)
  orthogonal box = (291.99475 291.99475 275.78395) to (908.00525 908.00525 924.21605)
  orthogonal box = (291.99475 291.99475 291.99475) to (908.00525 908.00525 908.00525)
run 8000
Per MPI rank memory allocation (min/avg/max) = 11.78 | 11.81 | 11.85 Mbytes
Step PotEng Temp Press KinEng Lx Ly Lz Pzz S/CPU Density 
 1102001    3215.8721    397.34664    10.851293    7351.6631     616.0105     616.0105     616.0105    11.077829            0 0.0049484363 
 1110001    1218.6619    394.47175    0.1071076    7298.4722     616.0105     616.0105     616.0105  0.051048603    1718.8775 0.0049484363 
Loop time of 4.65423 on 6 procs for 8000 steps with 6208 atoms

Performance: 1485.099 ns/day, 0.016 hours/ns, 1718.865 timesteps/s
99.7% CPU use with 6 MPI tasks x no OpenMP threads

MPI task timing breakdown:
Section |  min time  |  avg time  |  max time  |%varavg| %total
---------------------------------------------------------------
Pair    | 1.8336     | 2.3799     | 3.2876     |  31.3 | 51.13
Bond    | 0.06672    | 0.086067   | 0.10978    |   5.3 |  1.85
Neigh   | 0.37643    | 0.37858    | 0.38096    |   0.3 |  8.13
Comm    | 0.31016    | 1.3331     | 1.9794     |  48.1 | 28.64
Output  | 4.0054e-05 | 6.5724e-05 | 9.9897e-05 |   0.0 |  0.00
Modify  | 0.33549    | 0.43156    | 0.54785    |  11.6 |  9.27
Other   |            | 0.0449     |            |       |  0.96

Nlocal:        1034.67 ave        1382 max         758 min
Histogram: 2 0 0 1 0 0 2 0 0 1
Nghost:        1115.67 ave        1383 max         846 min
Histogram: 1 0 2 0 0 0 1 0 1 1
Neighs:        14937.8 ave       21958 max       10347 min
Histogram: 1 1 0 1 2 0 0 0 0 1

Total # of neighbors = 89627
Ave neighs/atom = 14.437339
Ave special neighs/atom = 1.9793814
Neighbor list builds = 363
Dangerous builds = 0

if "${myDensity} > 1.0" then "jump SELF break"

next a
jump SELF loop
variable a loop 1000
change_box all x scale 0.95 y scale 0.95 z scale 0.95 remap
Changing box ...
  orthogonal box = (307.39501 291.99475 291.99475) to (892.60499 908.00525 908.00525)
  orthogonal box = (307.39501 307.39501 291.99475) to (892.60499 892.60499 908.00525)
  orthogonal box = (307.39501 307.39501 307.39501) to (892.60499 892.60499 892.60499)
run 8000
Per MPI rank memory allocation (min/avg/max) = 11.78 | 11.81 | 11.85 Mbytes
Step PotEng Temp Press KinEng Lx Ly Lz Pzz S/CPU Density 
 1110001    3303.4562    394.47175    12.623047    7298.4722    585.20997    585.20997    585.20997    12.469001            0 0.0057716126 
 1118001    1142.8791     388.5987  0.076141557    7189.8097    585.20997    585.20997    585.20997  -0.10635724    1616.7273 0.0057716126 
Loop time of 4.94838 on 6 procs for 8000 steps with 6208 atoms

Performance: 1396.822 ns/day, 0.017 hours/ns, 1616.692 timesteps/s
99.7% CPU use with 6 MPI tasks x no OpenMP threads

MPI task timing breakdown:
Section |  min time  |  avg time  |  max time  |%varavg| %total
---------------------------------------------------------------
Pair    | 1.6088     | 2.3999     | 3.474      |  38.1 | 48.50
Bond    | 0.061784   | 0.086063   | 0.11975    |   6.6 |  1.74
Neigh   | 0.3874     | 0.38904    | 0.3909     |   0.2 |  7.86
Comm    | 0.34986    | 1.5855     | 2.4975     |  54.2 | 32.04
Output  | 3.9101e-05 | 8.1062e-05 | 0.00018001 |   0.0 |  0.00
Modify  | 0.31064    | 0.43158    | 0.59699    |  14.5 |  8.72
Other   |            | 0.05623    |            |       |  1.14

Nlocal:        1034.67 ave        1433 max         755 min
Histogram: 1 1 1 0 0 2 0 0 0 1
Nghost:        1255.67 ave        1382 max        1057 min
Histogram: 1 0 0 0 2 0 0 1 0 2
Neighs:        15132.3 ave       20699 max       10115 min
Histogram: 1 0 1 0 1 1 1 0 0 1

Total # of neighbors = 90794
Ave neighs/atom = 14.625322
Ave special neighs/atom = 1.9793814
Neighbor list builds = 358
Dangerous builds = 0

if "${myDensity} > 1.0" then "jump SELF break"

next a
jump SELF loop
variable a loop 1000
change_box all x scale 0.95 y scale 0.95 z scale 0.95 remap
Changing box ...
  orthogonal box = (322.02526 307.39501 307.39501) to (877.97474 892.60499 892.60499)
  orthogonal box = (322.02526 322.02526 307.39501) to (877.97474 877.97474 892.60499)
  orthogonal box = (322.02526 322.02526 322.02526) to (877.97474 877.97474 877.97474)
run 8000
Per MPI rank memory allocation (min/avg/max) = 11.78 | 11.81 | 11.85 Mbytes
Step PotEng Temp Press KinEng Lx Ly Lz Pzz S/CPU Density 
 1118001    3226.3603     388.5987    14.718732    7189.8097    555.94948    555.94948    555.94948    14.592236            0 0.0067317249 
 1126001    1164.1563    392.06106  -0.19293844    7253.8697    555.94948    555.94948    555.94948  -0.10123037    1704.5136 0.0067317249 
Loop time of 4.69353 on 6 procs for 8000 steps with 6208 atoms

Performance: 1472.665 ns/day, 0.016 hours/ns, 1704.473 timesteps/s
99.7% CPU use with 6 MPI tasks x no OpenMP threads

MPI task timing breakdown:
Section |  min time  |  avg time  |  max time  |%varavg| %total
---------------------------------------------------------------
Pair    | 1.8809     | 2.3856     | 3.2128     |  27.9 | 50.83
Bond    | 0.066459   | 0.086472   | 0.11968    |   6.1 |  1.84
Neigh   | 0.37775    | 0.37861    | 0.37971    |   0.1 |  8.07
Comm    | 0.36782    | 1.3539     | 1.962      |  44.2 | 28.85
Output  | 4.1008e-05 | 8.0864e-05 | 0.00017595 |   0.0 |  0.00
Modify  | 0.32654    | 0.43222    | 0.59584    |  13.6 |  9.21
Other   |            | 0.05673    |            |       |  1.21

Nlocal:        1034.67 ave        1401 max         826 min
Histogram: 2 0 1 0 2 0 0 0 0 1
Nghost:        1233.33 ave        1381 max        1084 min
Histogram: 2 0 0 1 0 0 1 0 0 2
Neighs:        15387.8 ave       20375 max       13304 min
Histogram: 2 1 1 0 1 0 0 0 0 1

Total # of neighbors = 92327
Ave neighs/atom = 14.872262
Ave special neighs/atom = 1.9793814
Neighbor list builds = 359
Dangerous builds = 0

if "${myDensity} > 1.0" then "jump SELF break"

next a
jump SELF loop
variable a loop 1000
change_box all x scale 0.95 y scale 0.95 z scale 0.95 remap
Changing box ...
  orthogonal box = (335.92400 322.02526 322.02526) to (864.07600 877.97474 877.97474)
  orthogonal box = (335.92400 335.92400 322.02526) to (864.07600 864.07600 877.97474)
  orthogonal box = (335.92400 335.92400 335.92400) to (864.07600 864.07600 864.07600)
run 8000
Per MPI rank memory allocation (min/avg/max) = 11.78 | 11.81 | 11.85 Mbytes
Step PotEng Temp Press KinEng Lx Ly Lz Pzz S/CPU Density 
 1126001    3147.8473    392.06106    16.945172    7253.8697      528.152      528.152      528.152     17.16242            0 0.0078515525 
 1134001    1148.3099     398.0266   0.17842145    7364.2435      528.152      528.152      528.152  0.057307888    1602.6013 0.0078515525 
Loop time of 4.99192 on 6 procs for 8000 steps with 6208 atoms

Performance: 1384.638 ns/day, 0.017 hours/ns, 1602.591 timesteps/s
99.7% CPU use with 6 MPI tasks x no OpenMP threads

MPI task timing breakdown:
Section |  min time  |  avg time  |  max time  |%varavg| %total
---------------------------------------------------------------
Pair    | 1.8837     | 2.4133     | 3.4783     |  32.2 | 48.34
Bond    | 0.06898    | 0.086116   | 0.12236    |   6.0 |  1.73
Neigh   | 0.39383    | 0.39413    | 0.39445    |   0.0 |  7.90
Comm    | 0.37011    | 1.6081     | 2.2209     |  45.8 | 32.21
Output  | 4.0054e-05 | 7.0572e-05 | 9.8944e-05 |   0.0 |  0.00
Modify  | 0.34808    | 0.43172    | 0.60874    |  13.1 |  8.65
Other   |            | 0.05855    |            |       |  1.17

Nlocal:        1034.67 ave        1507 max         847 min
Histogram: 2 1 2 0 0 0 0 0 0 1
Nghost:        1283.67 ave        1507 max        1159 min
Histogram: 2 0 1 0 1 1 0 0 0 1
Neighs:        15033.2 ave       21815 max       11566 min
Histogram: 1 1 2 1 0 0 0 0 0 1

Total # of neighbors = 90199
Ave neighs/atom = 14.529478
Ave special neighs/atom = 1.9793814
Neighbor list builds = 359
Dangerous builds = 0

if "${myDensity} > 1.0" then "jump SELF break"

next a
jump SELF loop
variable a loop 1000
change_box all x scale 0.95 y scale 0.95 z scale 0.95 remap
Changing box ...
  orthogonal box = (349.12780 335.92400 335.92400) to (850.87220 864.07600 864.07600)
  orthogonal box = (349.12780 349.12780 335.92400) to (850.87220 850.87220 864.07600)
  orthogonal box = (349.12780 349.12780 349.12780) to (850.87220 850.87220 850.87220)
run 8000
Per MPI rank memory allocation (min/avg/max) = 11.78 | 11.81 | 11.85 Mbytes
Step PotEng Temp Press KinEng Lx Ly Lz Pzz S/CPU Density 
 1134001    3261.3244     398.0266    20.297291    7364.2435     501.7444     501.7444     501.7444    20.310402            0 0.0091576644 
 1142001    1160.7421    398.83276  -0.23764514     7379.159     501.7444     501.7444     501.7444 -0.045715719    1554.8694 0.0091576644 
Loop time of 5.14524 on 6 procs for 8000 steps with 6208 atoms

Performance: 1343.379 ns/day, 0.018 hours/ns, 1554.836 timesteps/s
99.7% CPU use with 6 MPI tasks x no OpenMP threads

MPI task timing breakdown:
Section |  min time  |  avg time  |  max time  |%varavg| %total
---------------------------------------------------------------
Pair    | 1.5745     | 2.3941     | 3.5595     |  38.2 | 46.53
Bond    | 0.067238   | 0.086151   | 0.12881    |   7.0 |  1.67
Neigh   | 0.42001    | 0.42057    | 0.42111    |   0.1 |  8.17
Comm    | 0.37533    | 1.7467     | 2.6587     |  52.0 | 33.95
Output  | 4.4823e-05 | 9.0957e-05 | 0.00018811 |   0.0 |  0.00
Modify  | 0.3389     | 0.43144    | 0.64174    |  15.4 |  8.39
Other   |            | 0.06618    |            |       |  1.29

Nlocal:        1034.67 ave        1556 max         779 min
Histogram: 1 2 1 0 1 0 0 0 0 1
Nghost:        1325.17 ave        1710 max        1192 min
Histogram: 3 1 0 1 0 0 0 0 0 1
Neighs:        15471.7 ave       23271 max       10264 min
Histogram: 1 1 1 1 0 0 1 0 0 1

Total # of neighbors = 92830
Ave neighs/atom = 14.953286
Ave special neighs/atom = 1.9793814
Neighbor list builds = 371
Dangerous builds = 0

if "${myDensity} > 1.0" then "jump SELF break"

next a
jump SELF loop
variable a loop 1000
change_box all x scale 0.95 y scale 0.95 z scale 0.95 remap
Changing box ...
  orthogonal box = (361.67141 349.12780 349.12780) to (838.32859 850.87220 850.87220)
  orthogonal box = (361.67141 361.67141 349.12780) to (838.32859 838.32859 850.87220)
  orthogonal box = (361.67141 361.67141 361.67141) to (838.32859 838.32859 838.32859)
run 8000
Per MPI rank memory allocation (min/avg/max) = 11.78 | 11.81 | 11.85 Mbytes
Step PotEng Temp Press KinEng Lx Ly Lz Pzz S/CPU Density 
 1142001    3115.4158    398.83276    22.857331     7379.159    476.65718    476.65718    476.65718    22.861911            0  0.010681049 
 1150001    1107.5959    386.95958   0.28051119    7159.4827    476.65718    476.65718    476.65718    0.3159989    1530.3202  0.010681049 
Loop time of 5.22779 on 6 procs for 8000 steps with 6208 atoms

Performance: 1322.165 ns/day, 0.018 hours/ns, 1530.284 timesteps/s
99.7% CPU use with 6 MPI tasks x no OpenMP threads

MPI task timing breakdown:
Section |  min time  |  avg time  |  max time  |%varavg| %total
---------------------------------------------------------------
Pair    | 1.7544     | 2.5119     | 3.6812     |  39.8 | 48.05
Bond    | 0.067601   | 0.086194   | 0.12406    |   6.5 |  1.65
Neigh   | 0.41214    | 0.41275    | 0.41332    |   0.1 |  7.90
Comm    | 0.3744     | 1.7258     | 2.5735     |  55.0 | 33.01
Output  | 4.0054e-05 | 8.2374e-05 | 0.00018597 |   0.0 |  0.00
Modify  | 0.34026    | 0.43146    | 0.61684    |  14.2 |  8.25
Other   |            | 0.05962    |            |       |  1.14

Nlocal:        1034.67 ave        1449 max         860 min
Histogram: 3 0 1 0 1 0 0 0 0 1
Nghost:        1467.00 ave        1671 max        1300 min
Histogram: 1 1 1 1 0 0 0 0 1 1
Neighs:        15819.2 ave       23781 max       11445 min
Histogram: 1 1 1 1 1 0 0 0 0 1

Total # of neighbors = 94915
Ave neighs/atom = 15.289143
Ave special neighs/atom = 1.9793814
Neighbor list builds = 362
Dangerous builds = 0

if "${myDensity} > 1.0" then "jump SELF break"

next a
jump SELF loop
variable a loop 1000
change_box all x scale 0.95 y scale 0.95 z scale 0.95 remap
Changing box ...
  orthogonal box = (373.58784 361.67141 361.67141) to (826.41216 838.32859 838.32859)
  orthogonal box = (373.58784 373.58784 361.67141) to (826.41216 826.41216 838.32859)
  orthogonal box = (373.58784 373.58784 373.58784) to (826.41216 826.41216 826.41216)
run 8000
Per MPI rank memory allocation (min/avg/max) = 11.78 | 11.81 | 11.85 Mbytes
Step PotEng Temp Press KinEng Lx Ly Lz Pzz S/CPU Density 
 1150001    3232.6941    386.95958     27.45988    7159.4827    452.82432    452.82432    452.82432    27.991556            0   0.01245785 
 1158001    1191.4332    385.34934   0.13595338    7129.6904    452.82432    452.82432    452.82432   0.63721133    1457.1955   0.01245785 
Loop time of 5.49011 on 6 procs for 8000 steps with 6208 atoms

Performance: 1258.990 ns/day, 0.019 hours/ns, 1457.164 timesteps/s
99.7% CPU use with 6 MPI tasks x no OpenMP threads

MPI task timing breakdown:
Section |  min time  |  avg time  |  max time  |%varavg| %total
---------------------------------------------------------------
Pair    | 2.0954     | 2.558      | 3.8951     |  38.4 | 46.59
Bond    | 0.071175   | 0.08634    | 0.12434    |   6.2 |  1.57
Neigh   | 0.43093    | 0.43231    | 0.43346    |   0.2 |  7.87
Comm    | 0.40206    | 1.9216     | 2.4544     |  50.5 | 35.00
Output  | 4.0054e-05 | 8.6625e-05 | 0.00018811 |   0.0 |  0.00
Modify  | 0.36022    | 0.43184    | 0.61808    |  13.6 |  7.87
Other   |            | 0.05999    |            |       |  1.09

Nlocal:        1034.67 ave        1505 max         856 min
Histogram: 3 0 1 1 0 0 0 0 0 1
Nghost:        1560.00 ave        1684 max        1412 min
Histogram: 1 0 1 0 0 1 1 0 1 1
Neighs:        16075.2 ave       24885 max       13401 min
Histogram: 3 1 1 0 0 0 0 0 0 1

Total # of neighbors = 96451
Ave neighs/atom = 15.536566
Ave special neighs/atom = 1.9793814
Neighbor list builds = 355
Dangerous builds = 0

if "${myDensity} > 1.0" then "jump SELF break"

next a
jump SELF loop
variable a loop 1000
change_box all x scale 0.95 y scale 0.95 z scale 0.95 remap
Changing box ...
  orthogonal box = (384.90845 373.58784 373.58784) to (815.09155 826.41216 826.41216)
  orthogonal box = (384.90845 384.90845 373.58784) to (815.09155 815.09155 826.41216)
  orthogonal box = (384.90845 384.90845 384.90845) to (815.09155 815.09155 815.09155)
run 8000
Per MPI rank memory allocation (min/avg/max) = 11.78 | 11.81 | 11.85 Mbytes
Step PotEng Temp Press KinEng Lx Ly Lz Pzz S/CPU Density 
 1158001     3289.732    385.34934    31.924976    7129.6904    430.18311    430.18311    430.18311    32.649877            0  0.014530223 
 1166001    1132.4855     396.3285 -0.085858844    7332.8255    430.18311    430.18311    430.18311   0.35150554    1443.2534  0.014530223 
Loop time of 5.54315 on 6 procs for 8000 steps with 6208 atoms

Performance: 1246.945 ns/day, 0.019 hours/ns, 1443.223 timesteps/s
99.7% CPU use with 6 MPI tasks x no OpenMP threads

MPI task timing breakdown:
Section |  min time  |  avg time  |  max time  |%varavg| %total
---------------------------------------------------------------
Pair    | 1.9215     | 2.5173     | 3.9134     |  41.2 | 45.41
Bond    | 0.070279   | 0.086369   | 0.12549    |   6.4 |  1.56
Neigh   | 0.44741    | 0.44965    | 0.45169    |   0.2 |  8.11
Comm    | 0.41218    | 1.9956     | 2.6684     |  52.5 | 36.00
Output  | 4.6968e-05 | 8.7976e-05 | 0.00018597 |   0.0 |  0.00
Modify  | 0.35384    | 0.43197    | 0.62443    |  14.1 |  7.79
Other   |            | 0.06223    |            |       |  1.12

Nlocal:        1034.67 ave        1460 max         832 min
Histogram: 2 0 2 1 0 0 0 0 0 1
Nghost:        1589.50 ave        1904 max        1326 min
Histogram: 1 2 0 0 0 1 0 0 1 1
Neighs:        16463.5 ave       24571 max       11783 min
Histogram: 1 1 1 2 0 0 0 0 0 1

Total # of neighbors = 98781
Ave neighs/atom = 15.911888
Ave special neighs/atom = 1.9793814
Neighbor list builds = 359
Dangerous builds = 0

if "${myDensity} > 1.0" then "jump SELF break"

next a
jump SELF loop
variable a loop 1000
change_box all x scale 0.95 y scale 0.95 z scale 0.95 remap
Changing box ...
  orthogonal box = (395.66302 384.90845 384.90845) to (804.33698 815.09155 815.09155)
  orthogonal box = (395.66302 395.66302 384.90845) to (804.33698 804.33698 815.09155)
  orthogonal box = (395.66302 395.66302 395.66302) to (804.33698 804.33698 804.33698)
run 8000
Per MPI rank memory allocation (min/avg/max) = 11.78 | 11.81 | 11.86 Mbytes
Step PotEng Temp Press KinEng Lx Ly Lz Pzz S/CPU Density 
 1166001    3155.9932     396.3285    36.794954    7332.8255    408.67395    408.67395    408.67395    37.595908            0  0.016947337 
 1174001    1134.8763    394.46064  -0.31331106    7298.2667    408.67395    408.67395    408.67395   0.20239227    1463.8417  0.016947337 
Loop time of 5.46518 on 6 procs for 8000 steps with 6208 atoms

Performance: 1264.734 ns/day, 0.019 hours/ns, 1463.812 timesteps/s
99.7% CPU use with 6 MPI tasks x no OpenMP threads

MPI task timing breakdown:
Section |  min time  |  avg time  |  max time  |%varavg| %total
---------------------------------------------------------------
Pair    | 1.947      | 2.5795     | 3.8523     |  39.5 | 47.20
Bond    | 0.06668    | 0.08618    | 0.12134    |   6.0 |  1.58
Neigh   | 0.43862    | 0.44069    | 0.44246    |   0.3 |  8.06
Comm    | 0.42876    | 1.8692     | 2.5951     |  52.5 | 34.20
Output  | 4.4107e-05 | 8.9765e-05 | 0.00018716 |   0.0 |  0.00
Modify  | 0.33451    | 0.43148    | 0.60462    |  13.3 |  7.90
Other   |            | 0.05802    |            |       |  1.06

Nlocal:        1034.67 ave        1528 max         792 min
Histogram: 2 1 0 2 0 0 0 0 0 1
Nghost:        1676.50 ave        1921 max        1518 min
Histogram: 1 1 1 1 0 1 0 0 0 1
Neighs:        15979.5 ave       24864 max       11630 min
Histogram: 2 1 0 2 0 0 0 0 0 1

Total # of neighbors = 95877
Ave neighs/atom = 15.444104
Ave special neighs/atom = 1.9793814
Neighbor list builds = 359
Dangerous builds = 0

if "${myDensity} > 1.0" then "jump SELF break"

next a
jump SELF loop
variable a loop 1000
change_box all x scale 0.95 y scale 0.95 z scale 0.95 remap
Changing box ...
  orthogonal box = (405.87987 395.66302 395.66302) to (794.12013 804.33698 804.33698)
  orthogonal box = (405.87987 405.87987 395.66302) to (794.12013 794.12013 804.33698)
  orthogonal box = (405.87987 405.87987 405.87987) to (794.12013 794.12013 794.12013)
run 8000
Per MPI rank memory allocation (min/avg/max) = 11.78 | 11.82 | 11.86 Mbytes
Step PotEng Temp Press KinEng Lx Ly Lz Pzz S/CPU Density 
 1174001    3131.8525    394.46064    42.702062    7298.2667    388.24025    388.24025    388.24025    43.226439            0   0.01976654 
 1182001    1238.9985      400.811   0.30754124    7415.7602    388.24025    388.24025    388.24025   0.53060913      1606.98   0.01976654 
Loop time of 4.97832 on 6 procs for 8000 steps with 6208 atoms

Performance: 1388.421 ns/day, 0.017 hours/ns, 1606.969 timesteps/s
99.7% CPU use with 6 MPI tasks x no OpenMP threads

MPI task timing breakdown:
Section |  min time  |  avg time  |  max time  |%varavg| %total
---------------------------------------------------------------
Pair    | 1.9261     | 2.5578     | 3.407      |  28.4 | 51.38
Bond    | 0.070268   | 0.086377   | 0.11607    |   5.2 |  1.74
Neigh   | 0.40347    | 0.4055     | 0.40714    |   0.2 |  8.15
Comm    | 0.45497    | 1.4423     | 2.1504     |  43.3 | 28.97
Output  | 4.1962e-05 | 6.5446e-05 | 9.4175e-05 |   0.0 |  0.00
Modify  | 0.35077    | 0.43181    | 0.57743    |  11.4 |  8.67
Other   |            | 0.05444    |            |       |  1.09

Nlocal:        1034.67 ave        1334 max         910 min
Histogram: 2 2 0 0 1 0 0 0 0 1
Nghost:        1715.17 ave        1945 max        1419 min
Histogram: 1 0 2 0 0 0 0 0 1 2
Neighs:        16192.8 ave       20185 max       12839 min
Histogram: 1 0 2 0 0 1 1 0 0 1

Total # of neighbors = 97157
Ave neighs/atom = 15.650290
Ave special neighs/atom = 1.9793814
Neighbor list builds = 368
Dangerous builds = 0

if "${myDensity} > 1.0" then "jump SELF break"

next a
jump SELF loop
variable a loop 1000
change_box all x scale 0.95 y scale 0.95 z scale 0.95 remap
Changing box ...
  orthogonal box = (415.58588 405.87987 405.87987) to (784.41412 794.12013 794.12013)
  orthogonal box = (415.58588 415.58588 405.87987) to (784.41412 784.41412 794.12013)
  orthogonal box = (415.58588 415.58588 415.58588) to (784.41412 784.41412 784.41412)
run 8000
Per MPI rank memory allocation (min/avg/max) = 11.78 | 11.82 | 11.86 Mbytes
Step PotEng Temp Press KinEng Lx Ly Lz Pzz S/CPU Density 
 1182001    3337.1658      400.811    51.096702    7415.7602    368.82824    368.82824    368.82824    50.155907            0  0.023054719 
 1190001    1120.5779    392.92915  -0.12078433    7269.9311    368.82824    368.82824    368.82824  -0.31129182    1693.3199  0.023054719 
Loop time of 4.72456 on 6 procs for 8000 steps with 6208 atoms

Performance: 1462.994 ns/day, 0.016 hours/ns, 1693.280 timesteps/s
99.7% CPU use with 6 MPI tasks x no OpenMP threads

MPI task timing breakdown:
Section |  min time  |  avg time  |  max time  |%varavg| %total
---------------------------------------------------------------
Pair    | 2.0287     | 2.6615     | 3.2254     |  21.7 | 56.33
Bond    | 0.076424   | 0.086472   | 0.10551    |   3.3 |  1.83
Neigh   | 0.37657    | 0.38033    | 0.384      |   0.4 |  8.05
Comm    | 0.47213    | 1.1228     | 1.7973     |  36.5 | 23.76
Output  | 3.9101e-05 | 6.9062e-05 | 0.00015903 |   0.0 |  0.00
Modify  | 0.3826     | 0.43168    | 0.52522    |   7.2 |  9.14
Other   |            | 0.0417     |            |       |  0.88

Nlocal:        1034.67 ave        1240 max         903 min
Histogram: 1 1 1 1 0 1 0 0 0 1
Nghost:        1917.17 ave        2293 max        1482 min
Histogram: 1 1 0 1 0 0 0 1 0 2
Neighs:        17238.8 ave       20611 max       14439 min
Histogram: 1 0 1 0 2 1 0 0 0 1

Total # of neighbors = 103433
Ave neighs/atom = 16.661244
Ave special neighs/atom = 1.9793814
Neighbor list builds = 362
Dangerous builds = 0

if "${myDensity} > 1.0" then "jump SELF break"

next a
jump SELF loop
variable a loop 1000
change_box all x scale 0.95 y scale 0.95 z scale 0.95 remap
Changing box ...
  orthogonal box = (424.80659 415.58588 415.58588) to (775.19341 784.41412 784.41412)
  orthogonal box = (424.80659 424.80659 415.58588) to (775.19341 775.19341 784.41412)
  orthogonal box = (424.80659 424.80659 424.80659) to (775.19341 775.19341 775.19341)
run 8000
Per MPI rank memory allocation (min/avg/max) = 11.78 | 11.82 | 11.86 Mbytes
Step PotEng Temp Press KinEng Lx Ly Lz Pzz S/CPU Density 
 1190001    3172.3361    392.92915    58.874325    7269.9311    350.38683    350.38683    350.38683     58.66152            0  0.026889889 
 1198001    1091.1543    395.70243    1.7212361    7321.2421    350.38683    350.38683    350.38683    2.5357852     1617.624  0.026889889 
Loop time of 4.94565 on 6 procs for 8000 steps with 6208 atoms

Performance: 1397.593 ns/day, 0.017 hours/ns, 1617.584 timesteps/s
99.6% CPU use with 6 MPI tasks x no OpenMP threads

MPI task timing breakdown:
Section |  min time  |  avg time  |  max time  |%varavg| %total
---------------------------------------------------------------
Pair    | 2.453      | 2.785      | 3.3589     |  17.5 | 56.31
Bond    | 0.076041   | 0.086718   | 0.1047     |   3.2 |  1.75
Neigh   | 0.41079    | 0.41352    | 0.41698    |   0.4 |  8.36
Comm    | 0.52969    | 1.1868     | 1.572      |  30.7 | 24.00
Output  | 3.6955e-05 | 7.2161e-05 | 0.00016785 |   0.0 |  0.00
Modify  | 0.37965    | 0.43211    | 0.52093    |   7.2 |  8.74
Other   |            | 0.04136    |            |       |  0.84

Nlocal:        1034.67 ave        1262 max         890 min
Histogram: 2 0 0 0 3 0 0 0 0 1
Nghost:        2114.50 ave        2455 max        1519 min
Histogram: 1 0 0 1 0 0 0 2 0 2
Neighs:        18035.7 ave       22344 max       14747 min
Histogram: 1 0 1 1 1 1 0 0 0 1

Total # of neighbors = 108214
Ave neighs/atom = 17.431379
Ave special neighs/atom = 1.9793814
Neighbor list builds = 367
Dangerous builds = 0

if "${myDensity} > 1.0" then "jump SELF break"

next a
jump SELF loop
variable a loop 1000
change_box all x scale 0.95 y scale 0.95 z scale 0.95 remap
Changing box ...
  orthogonal box = (433.56626 424.80659 424.80659) to (766.43374 775.19341 775.19341)
  orthogonal box = (433.56626 433.56626 424.80659) to (766.43374 766.43374 775.19341)
  orthogonal box = (433.56626 433.56626 433.56626) to (766.43374 766.43374 766.43374)
run 8000
Per MPI rank memory allocation (min/avg/max) = 11.78 | 11.82 | 11.86 Mbytes
Step PotEng Temp Press KinEng Lx Ly Lz Pzz S/CPU Density 
 1198001    3314.0297    395.70243    70.811036    7321.2421    332.86749    332.86749    332.86749     73.06207            0  0.031363043 
 1206001    1057.1381    400.91076  -0.11006892    7417.6059    332.86749    332.86749    332.86749   -0.8578712    1605.7599  0.031363043 
Loop time of 4.9821 on 6 procs for 8000 steps with 6208 atoms

Performance: 1387.368 ns/day, 0.017 hours/ns, 1605.750 timesteps/s
99.7% CPU use with 6 MPI tasks x no OpenMP threads

MPI task timing breakdown:
Section |  min time  |  avg time  |  max time  |%varavg| %total
---------------------------------------------------------------
Pair    | 2.3588     | 2.8065     | 3.3409     |  20.4 | 56.33
Bond    | 0.074486   | 0.08662    | 0.10547    |   3.7 |  1.74
Neigh   | 0.42699    | 0.42927    | 0.4316     |   0.3 |  8.62
Comm    | 0.55705    | 1.1767     | 1.6839     |  36.0 | 23.62
Output  | 0.0053289  | 0.0054841  | 0.0056801  |   0.2 |  0.11
Modify  | 0.37104    | 0.43181    | 0.52551    |   8.3 |  8.67
Other   |            | 0.04573    |            |       |  0.92

Nlocal:        1034.67 ave        1263 max         871 min
Histogram: 2 1 0 0 0 0 1 1 0 1
Nghost:        2166.83 ave        2577 max        1549 min
Histogram: 1 1 0 0 0 0 0 2 0 2
Neighs:        17882.7 ave       21849 max       14533 min
Histogram: 2 0 1 0 0 0 1 0 1 1

Total # of neighbors = 107296
Ave neighs/atom = 17.283505
Ave special neighs/atom = 1.9793814
Neighbor list builds = 368
Dangerous builds = 0

if "${myDensity} > 1.0" then "jump SELF break"

next a
jump SELF loop
variable a loop 1000
change_box all x scale 0.95 y scale 0.95 z scale 0.95 remap
Changing box ...
  orthogonal box = (441.88794 433.56626 433.56626) to (758.11206 766.43374 766.43374)
  orthogonal box = (441.88794 441.88794 433.56626) to (758.11206 758.11206 766.43374)
  orthogonal box = (441.88794 441.88794 441.88794) to (758.11206 758.11206 758.11206)
run 8000
Per MPI rank memory allocation (min/avg/max) = 11.79 | 11.82 | 11.86 Mbytes
Step PotEng Temp Press KinEng Lx Ly Lz Pzz S/CPU Density 
 1206001    3086.0504    400.91076    79.770169    7417.6059    316.22411    316.22411    316.22411    79.688039            0   0.03658031 
 1214001    1058.5207    398.77798   0.16049904    7378.1455    316.22411    316.22411    316.22411 -0.0084536345    1590.3788   0.03658031 
Loop time of 5.03036 on 6 procs for 8000 steps with 6208 atoms

Performance: 1374.058 ns/day, 0.017 hours/ns, 1590.344 timesteps/s
99.7% CPU use with 6 MPI tasks x no OpenMP threads

MPI task timing breakdown:
Section |  min time  |  avg time  |  max time  |%varavg| %total
---------------------------------------------------------------
Pair    | 2.1854     | 2.8761     | 3.4614     |  25.7 | 57.18
Bond    | 0.074153   | 0.08677    | 0.098893   |   3.4 |  1.72
Neigh   | 0.42856    | 0.43034    | 0.43368    |   0.3 |  8.55
Comm    | 0.52878    | 1.169      | 1.9127     |  44.5 | 23.24
Output  | 3.8147e-05 | 6.4294e-05 | 0.00016212 |   0.0 |  0.00
Modify  | 0.36942    | 0.43174    | 0.49215    |   7.6 |  8.58
Other   |            | 0.03636    |            |       |  0.72

Nlocal:        1034.67 ave        1211 max         853 min
Histogram: 1 0 1 0 1 0 2 0 0 1
Nghost:        2302.50 ave        2759 max        1794 min
Histogram: 1 0 1 0 0 2 0 0 1 1
Neighs:        18450.0 ave       21856 max       13970 min
Histogram: 1 0 0 1 1 0 0 0 2 1

Total # of neighbors = 110700
Ave neighs/atom = 17.831830
Ave special neighs/atom = 1.9793814
Neighbor list builds = 364
Dangerous builds = 0

if "${myDensity} > 1.0" then "jump SELF break"

next a
jump SELF loop
variable a loop 1000
change_box all x scale 0.95 y scale 0.95 z scale 0.95 remap
Changing box ...
  orthogonal box = (449.79355 441.88794 441.88794) to (750.20645 758.11206 758.11206)
  orthogonal box = (449.79355 449.79355 441.88794) to (750.20645 750.20645 758.11206)
  orthogonal box = (449.79355 449.79355 449.79355) to (750.20645 750.20645 750.20645)
run 8000
Per MPI rank memory allocation (min/avg/max) = 11.79 | 11.82 | 11.87 Mbytes
Step PotEng Temp Press KinEng Lx Ly Lz Pzz S/CPU Density 
 1214001    3111.6124    398.77798    93.371687    7378.1455    300.41291    300.41291    300.41291     91.34901            0  0.042665473 
 1222001    1113.8886    395.42244    0.3513677    7316.0617    300.41291    300.41291    300.41291  -0.36410737      1551.56  0.042665473 
Loop time of 5.15621 on 6 procs for 8000 steps with 6208 atoms

Performance: 1340.518 ns/day, 0.018 hours/ns, 1551.526 timesteps/s
99.7% CPU use with 6 MPI tasks x no OpenMP threads

MPI task timing breakdown:
Section |  min time  |  avg time  |  max time  |%varavg| %total
---------------------------------------------------------------
Pair    | 2.3002     | 2.9146     | 3.5488     |  22.5 | 56.53
Bond    | 0.074768   | 0.086737   | 0.10528    |   3.1 |  1.68
Neigh   | 0.42839    | 0.4313     | 0.43609    |   0.4 |  8.36
Comm    | 0.52935    | 1.2503     | 1.9119     |  37.4 | 24.25
Output  | 3.7909e-05 | 6.5684e-05 | 0.00016117 |   0.0 |  0.00
Modify  | 0.37341    | 0.43172    | 0.52364    |   6.9 |  8.37
Other   |            | 0.04148    |            |       |  0.80

Nlocal:        1034.67 ave        1239 max         888 min
Histogram: 1 1 1 0 1 0 1 0 0 1
Nghost:        2423.00 ave        2632 max        2002 min
Histogram: 1 0 0 0 0 0 1 2 1 1
Neighs:        18394.7 ave       22195 max       15478 min
Histogram: 3 0 0 0 0 1 0 0 0 2

Total # of neighbors = 110368
Ave neighs/atom = 17.778351
Ave special neighs/atom = 1.9793814
Neighbor list builds = 360
Dangerous builds = 0

if "${myDensity} > 1.0" then "jump SELF break"

next a
jump SELF loop
variable a loop 1000
change_box all x scale 0.95 y scale 0.95 z scale 0.95 remap
Changing box ...
  orthogonal box = (457.30387 449.79355 449.79355) to (742.69613 750.20645 750.20645)
  orthogonal box = (457.30387 457.30387 449.79355) to (742.69613 742.69613 750.20645)
  orthogonal box = (457.30387 457.30387 457.30387) to (742.69613 742.69613 742.69613)
run 8000
Per MPI rank memory allocation (min/avg/max) = 11.80 | 11.83 | 11.87 Mbytes
Step PotEng Temp Press KinEng Lx Ly Lz Pzz S/CPU Density 
 1222001    3196.0492    395.42244    109.65544    7316.0617    285.39226    285.39226    285.39226    110.16107            0  0.049762908 
 1230001    1009.6773    404.38243    0.5911722    7481.8384    285.39226    285.39226    285.39226    1.5245833    1472.1843  0.049762908 
Loop time of 5.43422 on 6 procs for 8000 steps with 6208 atoms

Performance: 1271.941 ns/day, 0.019 hours/ns, 1472.154 timesteps/s
99.7% CPU use with 6 MPI tasks x no OpenMP threads

MPI task timing breakdown:
Section |  min time  |  avg time  |  max time  |%varavg| %total
---------------------------------------------------------------
Pair    | 2.3661     | 3.0559     | 3.631      |  31.0 | 56.23
Bond    | 0.075707   | 0.087052   | 0.10069    |   3.3 |  1.60
Neigh   | 0.46359    | 0.46722    | 0.47223    |   0.4 |  8.60
Comm    | 0.71997    | 1.3522     | 2.0864     |  49.8 | 24.88
Output  | 3.8862e-05 | 7.0453e-05 | 0.00015998 |   0.0 |  0.00
Modify  | 0.37475    | 0.43178    | 0.49795    |   7.1 |  7.95
Other   |            | 0.03996    |            |       |  0.74

Nlocal:        1034.67 ave        1218 max         887 min
Histogram: 1 0 1 0 2 1 0 0 0 1
Nghost:        2595.17 ave        2856 max        2388 min
Histogram: 1 1 0 1 1 0 0 1 0 1
Neighs:        19334.0 ave       25779 max       14680 min
Histogram: 1 1 1 0 0 1 1 0 0 1

Total # of neighbors = 116004
Ave neighs/atom = 18.686211
Ave special neighs/atom = 1.9793814
Neighbor list builds = 360
Dangerous builds = 0

if "${myDensity} > 1.0" then "jump SELF break"

next a
jump SELF loop
variable a loop 1000
change_box all x scale 0.95 y scale 0.95 z scale 0.95 remap
Changing box ...
  orthogonal box = (464.43868 457.30387 457.30387) to (735.56132 742.69613 742.69613)
  orthogonal box = (464.43868 464.43868 457.30387) to (735.56132 735.56132 742.69613)
  orthogonal box = (464.43868 464.43868 464.43868) to (735.56132 735.56132 735.56132)
run 8000
Per MPI rank memory allocation (min/avg/max) = 11.80 | 11.83 | 11.87 Mbytes
Step PotEng Temp Press KinEng Lx Ly Lz Pzz S/CPU Density 
 1230001     3059.941    404.38243    126.90331    7481.8384    271.12265    271.12265    271.12265    127.58852            0  0.058041006 
 1238001    981.55497    401.90729    2.2025532    7436.0437    271.12265    271.12265    271.12265    3.0089175    1318.6721  0.058041006 
Loop time of 6.06683 on 6 procs for 8000 steps with 6208 atoms

Performance: 1139.311 ns/day, 0.021 hours/ns, 1318.647 timesteps/s
99.7% CPU use with 6 MPI tasks x no OpenMP threads

MPI task timing breakdown:
Section |  min time  |  avg time  |  max time  |%varavg| %total
---------------------------------------------------------------
Pair    | 2.4315     | 3.1863     | 4.2034     |  30.3 | 52.52
Bond    | 0.073793   | 0.087203   | 0.10873    |   3.6 |  1.44
Neigh   | 0.56678    | 0.57006    | 0.57479    |   0.4 |  9.40
Comm    | 0.62537    | 1.7397     | 2.5504     |  44.2 | 28.68
Output  | 3.7909e-05 | 7.1764e-05 | 0.00016594 |   0.0 |  0.00
Modify  | 0.36454    | 0.43223    | 0.53946    |   8.0 |  7.12
Other   |            | 0.05131    |            |       |  0.85

Nlocal:        1034.67 ave        1281 max         891 min
Histogram: 1 0 3 1 0 0 0 0 0 1
Nghost:        2747.50 ave        3004 max        2522 min
Histogram: 1 0 2 1 0 0 0 0 0 2
Neighs:        21662.2 ave       29326 max       17383 min
Histogram: 1 1 1 1 1 0 0 0 0 1

Total # of neighbors = 129973
Ave neighs/atom = 20.936372
Ave special neighs/atom = 1.9793814
Neighbor list builds = 366
Dangerous builds = 0

if "${myDensity} > 1.0" then "jump SELF break"

next a
jump SELF loop
variable a loop 1000
change_box all x scale 0.95 y scale 0.95 z scale 0.95 remap
Changing box ...
  orthogonal box = (471.21674 464.43868 464.43868) to (728.78326 735.56132 735.56132)
  orthogonal box = (471.21674 471.21674 464.43868) to (728.78326 728.78326 735.56132)
  orthogonal box = (471.21674 471.21674 471.21674) to (728.78326 728.78326 728.78326)
run 8000
Per MPI rank memory allocation (min/avg/max) = 11.80 | 11.83 | 11.87 Mbytes
Step PotEng Temp Press KinEng Lx Ly Lz Pzz S/CPU Density 
 1238001    3139.5183    401.90729    151.94782    7436.0437    257.56652    257.56652    257.56652    153.53223            0  0.067696173 
 1246001    1023.6088    397.96502   -1.3159629    7363.1041    257.56652    257.56652    257.56652   -3.9019448    1323.7827  0.067696173 
Loop time of 6.0434 on 6 procs for 8000 steps with 6208 atoms

Performance: 1143.726 ns/day, 0.021 hours/ns, 1323.757 timesteps/s
99.6% CPU use with 6 MPI tasks x no OpenMP threads

MPI task timing breakdown:
Section |  min time  |  avg time  |  max time  |%varavg| %total
---------------------------------------------------------------
Pair    | 2.4449     | 3.2111     | 3.9473     |  28.7 | 53.13
Bond    | 0.070618   | 0.086959   | 0.099886   |   3.1 |  1.44
Neigh   | 0.56871    | 0.57382    | 0.58063    |   0.5 |  9.49
Comm    | 0.9389     | 1.6972     | 2.5312     |  42.1 | 28.08
Output  | 3.6955e-05 | 6.7035e-05 | 0.00016499 |   0.0 |  0.00
Modify  | 0.35077    | 0.43187    | 0.49629    |   7.0 |  7.15
Other   |            | 0.04242    |            |       |  0.70

Nlocal:        1034.67 ave        1204 max         783 min
Histogram: 1 0 0 0 1 1 0 1 1 1
Nghost:        2955.67 ave        3172 max        2741 min
Histogram: 1 1 1 0 0 0 1 0 0 2
Neighs:        20261.7 ave       28679 max       15482 min
Histogram: 1 1 1 2 0 0 0 0 0 1

Total # of neighbors = 121570
Ave neighs/atom = 19.582796
Ave special neighs/atom = 1.9793814
Neighbor list builds = 368
Dangerous builds = 0

if "${myDensity} > 1.0" then "jump SELF break"

next a
jump SELF loop
variable a loop 1000
change_box all x scale 0.95 y scale 0.95 z scale 0.95 remap
Changing box ...
  orthogonal box = (477.65590 471.21674 471.21674) to (722.34410 728.78326 728.78326)
  orthogonal box = (477.65590 477.65590 471.21674) to (722.34410 722.34410 728.78326)
  orthogonal box = (477.65590 477.65590 477.65590) to (722.34410 722.34410 722.34410)
run 8000
Per MPI rank memory allocation (min/avg/max) = 11.81 | 11.83 | 11.87 Mbytes
Step PotEng Temp Press KinEng Lx Ly Lz Pzz S/CPU Density 
 1246001    3022.4076    397.96502    171.35002    7363.1041    244.68819    244.68819    244.68819    172.21073            0  0.078957484 
 1254001    873.18152    396.18844  0.061075134    7330.2342    244.68819    244.68819    244.68819   -2.6464165    1256.0861  0.078957484 
Loop time of 6.36911 on 6 procs for 8000 steps with 6208 atoms

Performance: 1085.239 ns/day, 0.022 hours/ns, 1256.063 timesteps/s
99.6% CPU use with 6 MPI tasks x no OpenMP threads

MPI task timing breakdown:
Section |  min time  |  avg time  |  max time  |%varavg| %total
---------------------------------------------------------------
Pair    | 2.5301     | 3.3819     | 4.3907     |  34.6 | 53.10
Bond    | 0.066102   | 0.087289   | 0.10329    |   4.1 |  1.37
Neigh   | 0.62318    | 0.62653    | 0.63339    |   0.4 |  9.84
Comm    | 0.71471    | 1.7966     | 2.7402     |  51.3 | 28.21
Output  | 4.3154e-05 | 7.6413e-05 | 0.00016809 |   0.0 |  0.00
Modify  | 0.32742    | 0.43199    | 0.51117    |   9.1 |  6.78
Other   |            | 0.04474    |            |       |  0.70

Nlocal:        1034.67 ave        1281 max         737 min
Histogram: 1 0 1 0 0 1 1 1 0 1
Nghost:        3215.17 ave        3425 max        2948 min
Histogram: 1 1 0 0 0 0 2 0 0 2
Neighs:        22297.5 ave       29774 max       15085 min
Histogram: 2 0 0 0 0 2 0 1 0 1

Total # of neighbors = 133785
Ave neighs/atom = 21.550419
Ave special neighs/atom = 1.9793814
Neighbor list builds = 364
Dangerous builds = 0

if "${myDensity} > 1.0" then "jump SELF break"

next a
jump SELF loop
variable a loop 1000
change_box all x scale 0.95 y scale 0.95 z scale 0.95 remap
Changing box ...
  orthogonal box = (483.77311 477.65590 477.65590) to (716.22689 722.34410 722.34410)
  orthogonal box = (483.77311 483.77311 477.65590) to (716.22689 716.22689 722.34410)
  orthogonal box = (483.77311 483.77311 483.77311) to (716.22689 716.22689 716.22689)
run 8000
Per MPI rank memory allocation (min/avg/max) = 11.81 | 11.83 | 11.87 Mbytes
Step PotEng Temp Press KinEng Lx Ly Lz Pzz S/CPU Density 
 1254001    2967.9704    396.18844    204.98179    7330.2342    232.45378    232.45378    232.45378    205.84985            0  0.092092123 
 1262001    916.75446    396.08064    1.3502158    7328.2397    232.45378    232.45378    232.45378    2.4532496    1212.3416  0.092092123 
Loop time of 6.59892 on 6 procs for 8000 steps with 6208 atoms

Performance: 1047.445 ns/day, 0.023 hours/ns, 1212.320 timesteps/s
99.6% CPU use with 6 MPI tasks x no OpenMP threads

MPI task timing breakdown:
Section |  min time  |  avg time  |  max time  |%varavg| %total
---------------------------------------------------------------
Pair    | 2.4081     | 3.6201     | 4.5935     |  37.6 | 54.86
Bond    | 0.063293   | 0.087158   | 0.10428    |   4.5 |  1.32
Neigh   | 0.63581    | 0.63829    | 0.64282    |   0.3 |  9.67
Comm    | 0.72208    | 1.775      | 3.096      |  58.2 | 26.90
Output  | 3.6955e-05 | 6.8625e-05 | 0.00016308 |   0.0 |  0.00
Modify  | 0.31375    | 0.43214    | 0.51697    |  10.0 |  6.55
Other   |            | 0.04608    |            |       |  0.70

Nlocal:        1034.67 ave        1226 max         763 min
Histogram: 1 0 0 0 0 2 0 2 0 1
Nghost:        3391.50 ave        3462 max        3150 min
Histogram: 1 0 0 0 0 0 0 1 0 4
Neighs:        23891.0 ave       28504 max       16793 min
Histogram: 1 0 0 1 0 1 0 0 2 1

Total # of neighbors = 143346
Ave neighs/atom = 23.090528
Ave special neighs/atom = 1.9793814
Neighbor list builds = 361
Dangerous builds = 0

if "${myDensity} > 1.0" then "jump SELF break"

next a
jump SELF loop
variable a loop 1000
change_box all x scale 0.95 y scale 0.95 z scale 0.95 remap
Changing box ...
  orthogonal box = (489.58445 483.77311 483.77311) to (710.41555 716.22689 716.22689)
  orthogonal box = (489.58445 489.58445 483.77311) to (710.41555 710.41555 716.22689)
  orthogonal box = (489.58445 489.58445 489.58445) to (710.41555 710.41555 710.41555)
run 8000
Per MPI rank memory allocation (min/avg/max) = 11.81 | 11.84 | 11.88 Mbytes
Step PotEng Temp Press KinEng Lx Ly Lz Pzz S/CPU Density 
 1262001     3023.015    396.08064    238.33032    7328.2397    220.83109    220.83109    220.83109    239.85297            0   0.10741172 
 1270001    903.23451    396.13613   -0.7834926    7329.2662    220.83109    220.83109    220.83109   -4.8532586    1132.5814   0.10741172 
Loop time of 7.06362 on 6 procs for 8000 steps with 6208 atoms

Performance: 978.536 ns/day, 0.025 hours/ns, 1132.564 timesteps/s
99.6% CPU use with 6 MPI tasks x no OpenMP threads

MPI task timing breakdown:
Section |  min time  |  avg time  |  max time  |%varavg| %total
---------------------------------------------------------------
Pair    | 3.216      | 3.8496     | 4.8889     |  31.8 | 54.50
Bond    | 0.071897   | 0.087647   | 0.1028     |   3.8 |  1.24
Neigh   | 0.67804    | 0.68183    | 0.68616    |   0.3 |  9.65
Comm    | 0.85291    | 1.9618     | 2.6221     |  47.8 | 27.77
Output  | 3.6955e-05 | 7.0294e-05 | 0.00015783 |   0.0 |  0.00
Modify  | 0.35381    | 0.4328     | 0.50763    |   8.4 |  6.13
Other   |            | 0.04987    |            |       |  0.71

Nlocal:        1034.67 ave        1252 max         847 min
Histogram: 1 0 2 0 1 0 0 0 1 1
Nghost:        3983.17 ave        4229 max        3585 min
Histogram: 1 0 1 0 0 0 1 0 2 1
Neighs:        24681.0 ave       32618 max       18901 min
Histogram: 2 0 1 0 1 0 0 0 1 1

Total # of neighbors = 148086
Ave neighs/atom = 23.854059
Ave special neighs/atom = 1.9793814
Neighbor list builds = 366
Dangerous builds = 0

if "${myDensity} > 1.0" then "jump SELF break"

next a
jump SELF loop
variable a loop 1000
change_box all x scale 0.95 y scale 0.95 z scale 0.95 remap
Changing box ...
  orthogonal box = (495.10523 489.58445 489.58445) to (704.89477 710.41555 710.41555)
  orthogonal box = (495.10523 495.10523 489.58445) to (704.89477 704.89477 710.41555)
  orthogonal box = (495.10523 495.10523 495.10523) to (704.89477 704.89477 704.89477)
run 8000
Per MPI rank memory allocation (min/avg/max) = 11.82 | 11.84 | 11.89 Mbytes
Step PotEng Temp Press KinEng Lx Ly Lz Pzz S/CPU Density 
 1270001    2932.6716    396.13613    273.02084    7329.2662    209.78954    209.78954    209.78954    265.14109            0   0.12527974 
 1278001    959.23343    397.54314    -2.709211    7355.2986    209.78954    209.78954    209.78954   -1.9521049    1040.5796   0.12527974 
Loop time of 7.68813 on 6 procs for 8000 steps with 6208 atoms

Performance: 899.048 ns/day, 0.027 hours/ns, 1040.565 timesteps/s
99.5% CPU use with 6 MPI tasks x no OpenMP threads

MPI task timing breakdown:
Section |  min time  |  avg time  |  max time  |%varavg| %total
---------------------------------------------------------------
Pair    | 2.8754     | 3.9833     | 5.3168     |  44.6 | 51.81
Bond    | 0.072604   | 0.087837   | 0.10292    |   4.0 |  1.14
Neigh   | 0.76769    | 0.76936    | 0.77162    |   0.1 | 10.01
Comm    | 0.96386    | 2.3599     | 3.5338     |  61.3 | 30.69
Output  | 3.6955e-05 | 6.9102e-05 | 0.00015211 |   0.0 |  0.00
Modify  | 0.35642    | 0.43328    | 0.5075     |   8.8 |  5.64
Other   |            | 0.05442    |            |       |  0.71

Nlocal:        1034.67 ave        1201 max         856 min
Histogram: 2 0 0 0 0 1 1 0 1 1
Nghost:        4142.00 ave        4450 max        3934 min
Histogram: 3 0 0 0 0 1 0 1 0 1
Neighs:        25442.7 ave       33397 max       15341 min
Histogram: 1 0 1 0 0 0 1 2 0 1

Total # of neighbors = 152656
Ave neighs/atom = 24.590206
Ave special neighs/atom = 1.9793814
Neighbor list builds = 369
Dangerous builds = 0

if "${myDensity} > 1.0" then "jump SELF break"

next a
jump SELF loop
variable a loop 1000
change_box all x scale 0.95 y scale 0.95 z scale 0.95 remap
Changing box ...
  orthogonal box = (500.34997 495.10523 495.10523) to (699.65003 704.89477 704.89477)
  orthogonal box = (500.34997 500.34997 495.10523) to (699.65003 699.65003 704.89477)
  orthogonal box = (500.34997 500.34997 500.34997) to (699.65003 699.65003 699.65003)
run 8000
Per MPI rank memory allocation (min/avg/max) = 11.82 | 11.85 | 11.89 Mbytes
Step PotEng Temp Press KinEng Lx Ly Lz Pzz S/CPU Density 
 1278001    2977.4408    397.54314    319.96428    7355.2986    199.30006    199.30006    199.30006    326.12473            0   0.14612013 
 1286001    788.76389    395.03862     4.411245    7308.9602    199.30006    199.30006    199.30006    8.4961953    1028.2636   0.14612013 
Loop time of 7.78022 on 6 procs for 8000 steps with 6208 atoms

Performance: 888.407 ns/day, 0.027 hours/ns, 1028.249 timesteps/s
99.5% CPU use with 6 MPI tasks x no OpenMP threads

MPI task timing breakdown:
Section |  min time  |  avg time  |  max time  |%varavg| %total
---------------------------------------------------------------
Pair    | 3.3885     | 4.1686     | 5.423      |  33.4 | 53.58
Bond    | 0.075283   | 0.087988   | 0.10411    |   3.1 |  1.13
Neigh   | 0.76039    | 0.76137    | 0.76247    |   0.1 |  9.79
Comm    | 0.95162    | 2.2764     | 3.1082     |  47.7 | 29.26
Output  | 3.7193e-05 | 7.7248e-05 | 0.00016999 |   0.0 |  0.00
Modify  | 0.3696     | 0.43299    | 0.51088    |   6.9 |  5.57
Other   |            | 0.0528     |            |       |  0.68

Nlocal:        1034.67 ave        1346 max         859 min
Histogram: 1 2 1 0 0 1 0 0 0 1
Nghost:        4566.17 ave        4988 max        3857 min
Histogram: 1 1 0 0 0 0 0 1 1 2
Neighs:        27439.2 ave       41448 max       22151 min
Histogram: 3 1 0 1 0 0 0 0 0 1

Total # of neighbors = 164635
Ave neighs/atom = 26.519813
Ave special neighs/atom = 1.9793814
Neighbor list builds = 361
Dangerous builds = 0

if "${myDensity} > 1.0" then "jump SELF break"

next a
jump SELF loop
variable a loop 1000
change_box all x scale 0.95 y scale 0.95 z scale 0.95 remap
Changing box ...
  orthogonal box = (505.33247 500.34997 500.34997) to (694.66753 699.65003 699.65003)
  orthogonal box = (505.33247 505.33247 500.34997) to (694.66753 694.66753 699.65003)
  orthogonal box = (505.33247 505.33247 505.33247) to (694.66753 694.66753 694.66753)
run 8000
Per MPI rank memory allocation (min/avg/max) = 11.83 | 11.85 | 11.90 Mbytes
Step PotEng Temp Press KinEng Lx Ly Lz Pzz S/CPU Density 
 1286001    2943.1416    395.03862    382.34823    7308.9602    189.33506    189.33506    189.33506    393.64522            0   0.17042732 
 1294001    751.75824    396.58874   -2.2019829    7337.6405    189.33506    189.33506    189.33506   0.68047135    878.78184   0.17042732 
Loop time of 9.10362 on 6 procs for 8000 steps with 6208 atoms

Performance: 759.259 ns/day, 0.032 hours/ns, 878.772 timesteps/s
99.5% CPU use with 6 MPI tasks x no OpenMP threads

MPI task timing breakdown:
Section |  min time  |  avg time  |  max time  |%varavg| %total
---------------------------------------------------------------
Pair    | 3.3801     | 4.4276     | 6.412      |  46.9 | 48.64
Bond    | 0.074595   | 0.088899   | 0.11389    |   4.3 |  0.98
Neigh   | 0.93251    | 0.9336     | 0.93549    |   0.1 | 10.26
Comm    | 1.0594     | 3.1524     | 4.2362     |  58.5 | 34.63
Output  | 3.8147e-05 | 7.9115e-05 | 0.00016713 |   0.0 |  0.00
Modify  | 0.36212    | 0.43374    | 0.55283    |   9.3 |  4.76
Other   |            | 0.0673     |            |       |  0.74

Nlocal:        1034.67 ave        1351 max         853 min
Histogram: 2 0 1 0 2 0 0 0 0 1
Nghost:        4988.00 ave        5285 max        4538 min
Histogram: 1 0 0 1 0 0 1 0 2 1
Neighs:        28386.5 ave       41497 max       18875 min
Histogram: 1 0 1 1 1 1 0 0 0 1

Total # of neighbors = 170319
Ave neighs/atom = 27.435406
Ave special neighs/atom = 1.9793814
Neighbor list builds = 368
Dangerous builds = 0

if "${myDensity} > 1.0" then "jump SELF break"

next a
jump SELF loop
variable a loop 1000
change_box all x scale 0.95 y scale 0.95 z scale 0.95 remap
Changing box ...
  orthogonal box = (510.06585 505.33247 505.33247) to (689.93415 694.66753 694.66753)
  orthogonal box = (510.06585 510.06585 505.33247) to (689.93415 689.93415 694.66753)
  orthogonal box = (510.06585 510.06585 510.06585) to (689.93415 689.93415 689.93415)
run 8000
Per MPI rank memory allocation (min/avg/max) = 11.83 | 11.86 | 11.90 Mbytes
Step PotEng Temp Press KinEng Lx Ly Lz Pzz S/CPU Density 
 1294001    2780.7383    396.58874    434.89198    7337.6405     179.8683     179.8683     179.8683    439.93393            0   0.19877804 
 1302001    626.68925    399.71144  -0.31625751    7395.4162     179.8683     179.8683     179.8683   -5.3123669    828.86471   0.19877804 
Loop time of 9.65187 on 6 procs for 8000 steps with 6208 atoms

Performance: 716.131 ns/day, 0.034 hours/ns, 828.855 timesteps/s
99.3% CPU use with 6 MPI tasks x no OpenMP threads

MPI task timing breakdown:
Section |  min time  |  avg time  |  max time  |%varavg| %total
---------------------------------------------------------------
Pair    | 3.2172     | 4.9048     | 6.2386     |  50.3 | 50.82
Bond    | 0.069914   | 0.088866   | 0.10669    |   4.9 |  0.92
Neigh   | 1.0073     | 1.0082     | 1.0097     |   0.1 | 10.45
Comm    | 1.7113     | 3.1123     | 4.8876     |  66.8 | 32.25
Output  | 0.0059581  | 0.0061849  | 0.006443   |   0.2 |  0.06
Modify  | 0.33643    | 0.43399    | 0.5227     |  11.0 |  4.50
Other   |            | 0.09748    |            |       |  1.01

Nlocal:        1034.67 ave        1332 max         747 min
Histogram: 2 0 0 0 0 1 1 1 0 1
Nghost:        5448.00 ave        5808 max        5151 min
Histogram: 1 0 1 2 0 0 0 0 1 1
Neighs:        33667.8 ave       46054 max       21266 min
Histogram: 1 1 0 0 1 0 1 0 1 1

Total # of neighbors = 202007
Ave neighs/atom = 32.539787
Ave special neighs/atom = 1.9793814
Neighbor list builds = 368
Dangerous builds = 0

if "${myDensity} > 1.0" then "jump SELF break"

next a
jump SELF loop
variable a loop 1000
change_box all x scale 0.95 y scale 0.95 z scale 0.95 remap
Changing box ...
  orthogonal box = (514.56256 510.06585 510.06585) to (685.43744 689.93415 689.93415)
  orthogonal box = (514.56256 514.56256 510.06585) to (685.43744 685.43744 689.93415)
  orthogonal box = (514.56256 514.56256 514.56256) to (685.43744 685.43744 685.43744)
run 8000
Per MPI rank memory allocation (min/avg/max) = 11.84 | 11.87 | 11.91 Mbytes
Step PotEng Temp Press KinEng Lx Ly Lz Pzz S/CPU Density 
 1302001    2725.8133    399.71144     520.3455    7395.4162    170.87489    170.87489    170.87489    514.14527            0   0.23184492 
 1310001    556.47771    394.05833   -7.9413864     7290.823    170.87489    170.87489    170.87489    -10.79404    789.84957   0.23184492 
Loop time of 10.1286 on 6 procs for 8000 steps with 6208 atoms

Performance: 682.423 ns/day, 0.035 hours/ns, 789.841 timesteps/s
99.5% CPU use with 6 MPI tasks x no OpenMP threads

MPI task timing breakdown:
Section |  min time  |  avg time  |  max time  |%varavg| %total
---------------------------------------------------------------
Pair    | 3.6168     | 5.3812     | 7.1571     |  56.4 | 53.13
Bond    | 0.068822   | 0.089213   | 0.10912    |   5.1 |  0.88
Neigh   | 1.064      | 1.0665     | 1.0691     |   0.2 | 10.53
Comm    | 1.2259     | 3.0924     | 4.9438     |  78.2 | 30.53
Output  | 4.3869e-05 | 7.0612e-05 | 0.00015283 |   0.0 |  0.00
Modify  | 0.33315    | 0.43407    | 0.53532    |  11.4 |  4.29
Other   |            | 0.06518    |            |       |  0.64

Nlocal:        1034.67 ave        1182 max         857 min
Histogram: 2 0 0 0 0 0 1 1 1 1
Nghost:        5905.83 ave        6054 max        5774 min
Histogram: 2 0 0 0 1 0 1 1 0 1
Neighs:        34817.2 ave       41662 max       26384 min
Histogram: 1 1 0 0 0 1 1 0 0 2

Total # of neighbors = 208903
Ave neighs/atom = 33.650612
Ave special neighs/atom = 1.9793814
Neighbor list builds = 362
Dangerous builds = 0

if "${myDensity} > 1.0" then "jump SELF break"

next a
jump SELF loop
variable a loop 1000
change_box all x scale 0.95 y scale 0.95 z scale 0.95 remap
Changing box ...
  orthogonal box = (518.83443 514.56256 514.56256) to (681.16557 685.43744 685.43744)
  orthogonal box = (518.83443 518.83443 514.56256) to (681.16557 681.16557 685.43744)
  orthogonal box = (518.83443 518.83443 518.83443) to (681.16557 681.16557 681.16557)
run 8000
Per MPI rank memory allocation (min/avg/max) = 11.85 | 11.87 | 11.91 Mbytes
Step PotEng Temp Press KinEng Lx Ly Lz Pzz S/CPU Density 
 1310001     2582.456    394.05833    598.74614     7290.823    162.33115    162.33115    162.33115    605.26194            0   0.27041251 
 1318001    565.04999    395.51775    7.4735278     7317.825    162.33115    162.33115    162.33115  -0.21143826    850.69171   0.27041251 
Loop time of 9.40424 on 6 procs for 8000 steps with 6208 atoms

Performance: 734.988 ns/day, 0.033 hours/ns, 850.680 timesteps/s
99.5% CPU use with 6 MPI tasks x no OpenMP threads

MPI task timing breakdown:
Section |  min time  |  avg time  |  max time  |%varavg| %total
---------------------------------------------------------------
Pair    | 4.9178     | 5.716      | 6.483      |  22.8 | 60.78
Bond    | 0.076828   | 0.090334   | 0.10053    |   2.5 |  0.96
Neigh   | 0.9917     | 0.99253    | 0.99383    |   0.1 | 10.55
Comm    | 1.3055     | 2.1134     | 2.9782     |  39.7 | 22.47
Output  | 4.7922e-05 | 7.5459e-05 | 0.00017118 |   0.0 |  0.00
Modify  | 0.37008    | 0.43513    | 0.4875     |   5.7 |  4.63
Other   |            | 0.05676    |            |       |  0.60

Nlocal:        1034.67 ave        1077 max         990 min
Histogram: 1 1 0 0 1 1 0 0 0 2
Nghost:        6315.50 ave        6481 max        6011 min
Histogram: 2 0 0 0 0 0 0 0 0 4
Neighs:        37778.0 ave       40860 max       34815 min
Histogram: 1 0 1 1 1 0 0 0 1 1

Total # of neighbors = 226668
Ave neighs/atom = 36.512242
Ave special neighs/atom = 1.9793814
Neighbor list builds = 360
Dangerous builds = 0

if "${myDensity} > 1.0" then "jump SELF break"

next a
jump SELF loop
variable a loop 1000
change_box all x scale 0.95 y scale 0.95 z scale 0.95 remap
Changing box ...
  orthogonal box = (522.89271 518.83443 518.83443) to (677.10729 681.16557 681.16557)
  orthogonal box = (522.89271 522.89271 518.83443) to (677.10729 677.10729 681.16557)
  orthogonal box = (522.89271 522.89271 522.89271) to (677.10729 677.10729 677.10729)
run 8000
Per MPI rank memory allocation (min/avg/max) = 11.85 | 11.88 | 11.92 Mbytes
Step PotEng Temp Press KinEng Lx Ly Lz Pzz S/CPU Density 
 1318001    2758.5249    395.51775    719.45103     7317.825    154.21459    154.21459    154.21459    712.89062            0   0.31539584 
 1326001    481.60071    397.82107    7.6088954    7360.4409    154.21459    154.21459    154.21459   -3.0182071    798.45067   0.31539584 
Loop time of 10.0195 on 6 procs for 8000 steps with 6208 atoms

Performance: 689.854 ns/day, 0.035 hours/ns, 798.442 timesteps/s
99.5% CPU use with 6 MPI tasks x no OpenMP threads

MPI task timing breakdown:
Section |  min time  |  avg time  |  max time  |%varavg| %total
---------------------------------------------------------------
Pair    | 5.9247     | 6.2187     | 6.9749     |  14.2 | 62.07
Bond    | 0.088034   | 0.089916   | 0.093875   |   0.6 |  0.90
Neigh   | 1.099      | 1.0996     | 1.1003     |   0.0 | 10.97
Comm    | 1.3535     | 2.1232     | 2.4273     |  24.8 | 21.19
Output  | 3.8147e-05 | 7.1247e-05 | 0.00017715 |   0.0 |  0.00
Modify  | 0.4229     | 0.43511    | 0.45728    |   1.7 |  4.34
Other   |            | 0.05294    |            |       |  0.53

Nlocal:        1034.67 ave        1104 max         899 min
Histogram: 1 0 0 0 0 0 2 1 0 2
Nghost:        6867.00 ave        7063 max        6608 min
Histogram: 1 1 0 0 0 1 0 0 2 1
Neighs:        41296.7 ave       45620 max       35916 min
Histogram: 1 0 0 1 0 2 0 0 0 2

Total # of neighbors = 247780
Ave neighs/atom = 39.913015
Ave special neighs/atom = 1.9793814
Neighbor list builds = 367
Dangerous builds = 0

if "${myDensity} > 1.0" then "jump SELF break"

next a
jump SELF loop
variable a loop 1000
change_box all x scale 0.95 y scale 0.95 z scale 0.95 remap
Changing box ...
  orthogonal box = (526.74807 522.89271 522.89271) to (673.25193 677.10729 677.10729)
  orthogonal box = (526.74807 526.74807 522.89271) to (673.25193 673.25193 677.10729)
  orthogonal box = (526.74807 526.74807 526.74807) to (673.25193 673.25193 673.25193)
run 8000
Per MPI rank memory allocation (min/avg/max) = 11.86 | 11.88 | 11.93 Mbytes
Step PotEng Temp Press KinEng Lx Ly Lz Pzz S/CPU Density 
 1326001    2664.8177    397.82107    839.24224    7360.4409    146.50386    146.50386    146.50386    829.87647            0   0.36786218 
 1334001    324.58455    394.05504   0.73414867    7290.7621    146.50386    146.50386    146.50386   -1.5130186    710.36343   0.36786218 
Loop time of 11.262 on 6 procs for 8000 steps with 6208 atoms

Performance: 613.748 ns/day, 0.039 hours/ns, 710.356 timesteps/s
99.2% CPU use with 6 MPI tasks x no OpenMP threads

MPI task timing breakdown:
Section |  min time  |  avg time  |  max time  |%varavg| %total
---------------------------------------------------------------
Pair    | 6.2172     | 6.9692     | 8.0666     |  20.8 | 61.88
Bond    | 0.085016   | 0.090758   | 0.097763   |   1.3 |  0.81
Neigh   | 1.2152     | 1.2156     | 1.216      |   0.0 | 10.79
Comm    | 1.3693     | 2.482      | 3.2535     |  35.5 | 22.04
Output  | 3.8147e-05 | 6.5605e-05 | 0.00015616 |   0.0 |  0.00
Modify  | 0.39946    | 0.43584    | 0.4725     |   3.3 |  3.87
Other   |            | 0.06855    |            |       |  0.61

Nlocal:        1034.67 ave        1115 max         951 min
Histogram: 2 0 0 0 1 0 1 0 0 2
Nghost:        7465.00 ave        7731 max        7252 min
Histogram: 1 0 2 0 0 1 1 0 0 1
Neighs:        46017.7 ave       53187 max       40260 min
Histogram: 2 0 0 0 1 1 1 0 0 1

Total # of neighbors = 276106
Ave neighs/atom = 44.475838
Ave special neighs/atom = 1.9793814
Neighbor list builds = 362
Dangerous builds = 0

if "${myDensity} > 1.0" then "jump SELF break"

next a
jump SELF loop
variable a loop 1000
change_box all x scale 0.95 y scale 0.95 z scale 0.95 remap
Changing box ...
  orthogonal box = (530.41067 526.74807 526.74807) to (669.58933 673.25193 673.25193)
  orthogonal box = (530.41067 530.41067 526.74807) to (669.58933 669.58933 673.25193)
  orthogonal box = (530.41067 530.41067 530.41067) to (669.58933 669.58933 669.58933)
run 8000
Per MPI rank memory allocation (min/avg/max) = 11.87 | 11.89 | 11.93 Mbytes
Step PotEng Temp Press KinEng Lx Ly Lz Pzz S/CPU Density 
 1334001    2479.6036    394.05504    977.49412    7290.7621    139.17867    139.17867    139.17867    974.73054            0   0.42905634 
 1342001    342.01312    393.79712   -14.556997    7285.9902    139.17867    139.17867    139.17867   -3.8277976    648.10348   0.42905634 
Loop time of 12.3438 on 6 procs for 8000 steps with 6208 atoms

Performance: 559.955 ns/day, 0.043 hours/ns, 648.097 timesteps/s
96.3% CPU use with 6 MPI tasks x no OpenMP threads

MPI task timing breakdown:
Section |  min time  |  avg time  |  max time  |%varavg| %total
---------------------------------------------------------------
Pair    | 7.0306     | 7.7613     | 8.7247     |  20.4 | 62.88
Bond    | 0.087645   | 0.092833   | 0.098212   |   1.1 |  0.75
Neigh   | 1.3848     | 1.3853     | 1.3862     |   0.0 | 11.22
Comm    | 1.5257     | 2.5076     | 3.2614     |  36.6 | 20.31
Output  | 3.9101e-05 | 6.2744e-05 | 0.00016212 |   0.0 |  0.00
Modify  | 0.41024    | 0.43582    | 0.46008    |   2.4 |  3.53
Other   |            | 0.1609     |            |       |  1.30

Nlocal:        1034.67 ave        1104 max         951 min
Histogram: 1 0 0 0 2 1 0 0 1 1
Nghost:        8223.00 ave        8353 max        8011 min
Histogram: 1 0 0 1 0 0 0 2 1 1
Neighs:        51767.2 ave       60977 max       44695 min
Histogram: 1 1 0 1 1 0 1 0 0 1

Total # of neighbors = 310603
Ave neighs/atom = 50.032700
Ave special neighs/atom = 1.9793814
Neighbor list builds = 372
Dangerous builds = 0

if "${myDensity} > 1.0" then "jump SELF break"

next a
jump SELF loop
variable a loop 1000
change_box all x scale 0.95 y scale 0.95 z scale 0.95 remap
Changing box ...
  orthogonal box = (533.89013 530.41067 530.41067) to (666.10987 669.58933 669.58933)
  orthogonal box = (533.89013 533.89013 530.41067) to (666.10987 666.10987 669.58933)
  orthogonal box = (533.89013 533.89013 533.89013) to (666.10987 666.10987 666.10987)
run 8000
Per MPI rank memory allocation (min/avg/max) = 11.87 | 11.90 | 11.94 Mbytes
Step PotEng Temp Press KinEng Lx Ly Lz Pzz S/CPU Density 
 1342001    2415.6171    393.79712    1127.1838    7285.9902    132.21973    132.21973    132.21973    1127.1239            0    0.5004302 
 1350001   -22.259942    382.48222    10.475813    7076.6432    132.21973    132.21973    132.21973    2.8945685    558.51823    0.5004302 
Loop time of 14.3237 on 6 procs for 8000 steps with 6208 atoms

Performance: 482.556 ns/day, 0.050 hours/ns, 558.514 timesteps/s
96.3% CPU use with 6 MPI tasks x no OpenMP threads

MPI task timing breakdown:
Section |  min time  |  avg time  |  max time  |%varavg| %total
---------------------------------------------------------------
Pair    | 7.6505     | 8.8522     | 10.422     |  35.0 | 61.80
Bond    | 0.08699    | 0.093433   | 0.10162    |   1.9 |  0.65
Neigh   | 1.3937     | 1.3958     | 1.398      |   0.1 |  9.74
Comm    | 1.7112     | 3.3497     | 4.5937     |  58.4 | 23.39
Output  | 3.6001e-05 | 5.9287e-05 | 0.00014687 |   0.0 |  0.00
Modify  | 0.40689    | 0.43635    | 0.47252    |   3.7 |  3.05
Other   |            | 0.1962     |            |       |  1.37

Nlocal:        1034.67 ave        1103 max         954 min
Histogram: 1 0 1 0 1 0 0 1 1 1
Nghost:        8775.17 ave        8946 max        8686 min
Histogram: 2 0 2 0 1 0 0 0 0 1
Neighs:        58806.8 ave       67518 max       50778 min
Histogram: 1 1 0 0 1 1 0 1 0 1

Total # of neighbors = 352841
Ave neighs/atom = 56.836501
Ave special neighs/atom = 1.9793814
Neighbor list builds = 361
Dangerous builds = 0

if "${myDensity} > 1.0" then "jump SELF break"

next a
jump SELF loop
variable a loop 1000
change_box all x scale 0.95 y scale 0.95 z scale 0.95 remap
Changing box ...
  orthogonal box = (537.19563 533.89013 533.89013) to (662.80437 666.10987 666.10987)
  orthogonal box = (537.19563 537.19563 533.89013) to (662.80437 662.80437 666.10987)
  orthogonal box = (537.19563 537.19563 537.19563) to (662.80437 662.80437 662.80437)
run 8000
Per MPI rank memory allocation (min/avg/max) = 11.88 | 11.91 | 11.95 Mbytes
Step PotEng Temp Press KinEng Lx Ly Lz Pzz S/CPU Density 
 1350001    2250.7484    382.48222    1367.0124    7076.6432    125.60875    125.60875    125.60875    1354.6107            0   0.58367716 
 1358001   -217.88408    399.01039    26.224999    7382.4456    125.60875    125.60875    125.60875    19.959769     532.2001   0.58367716 
Loop time of 15.0321 on 6 procs for 8000 steps with 6208 atoms

Performance: 459.817 ns/day, 0.052 hours/ns, 532.196 timesteps/s
95.9% CPU use with 6 MPI tasks x no OpenMP threads

MPI task timing breakdown:
Section |  min time  |  avg time  |  max time  |%varavg| %total
---------------------------------------------------------------
Pair    | 9.2709     | 10.05      | 10.836     |  15.4 | 66.86
Bond    | 0.089974   | 0.091685   | 0.09474    |   0.5 |  0.61
Neigh   | 1.5492     | 1.5503     | 1.5515     |   0.1 | 10.31
Comm    | 1.861      | 2.6986     | 3.5053     |  31.0 | 17.95
Output  | 4.9114e-05 | 6.9539e-05 | 0.00016093 |   0.0 |  0.00
Modify  | 0.41914    | 0.43616    | 0.45433    |   1.6 |  2.90
Other   |            | 0.2052     |            |       |  1.36

Nlocal:        1034.67 ave        1101 max         983 min
Histogram: 1 1 0 1 0 2 0 0 0 1
Nghost:        9549.33 ave        9618 max        9471 min
Histogram: 1 0 0 0 2 1 0 1 0 1
Neighs:        67015.7 ave       74482 max       59652 min
Histogram: 1 0 0 2 0 1 1 0 0 1

Total # of neighbors = 402094
Ave neighs/atom = 64.770296
Ave special neighs/atom = 1.9793814
Neighbor list builds = 372
Dangerous builds = 0

if "${myDensity} > 1.0" then "jump SELF break"

next a
jump SELF loop
variable a loop 1000
change_box all x scale 0.95 y scale 0.95 z scale 0.95 remap
Changing box ...
  orthogonal box = (540.33585 537.19563 537.19563) to (659.66415 662.80437 662.80437)
  orthogonal box = (540.33585 540.33585 537.19563) to (659.66415 659.66415 662.80437)
  orthogonal box = (540.33585 540.33585 540.33585) to (659.66415 659.66415 659.66415)
run 8000
Per MPI rank memory allocation (min/avg/max) = 11.89 | 11.92 | 11.96 Mbytes
Step PotEng Temp Press KinEng Lx Ly Lz Pzz S/CPU Density 
 1358001    2138.1722    399.01039    1643.8233    7382.4456    119.32831    119.32831    119.32831     1634.554            0   0.68077231 
 1366001    -556.9988    396.49277    43.191728    7335.8647    119.32831    119.32831    119.32831    16.346677    472.64544   0.68077231 
Loop time of 16.9261 on 6 procs for 8000 steps with 6208 atoms

Performance: 408.363 ns/day, 0.059 hours/ns, 472.642 timesteps/s
95.9% CPU use with 6 MPI tasks x no OpenMP threads

MPI task timing breakdown:
Section |  min time  |  avg time  |  max time  |%varavg| %total
---------------------------------------------------------------
Pair    | 10.978     | 11.563     | 12.103     |  11.9 | 68.32
Bond    | 0.08843    | 0.092651   | 0.096993   |   1.0 |  0.55
Neigh   | 1.7175     | 1.7184     | 1.7192     |   0.0 | 10.15
Comm    | 2.3024     | 2.8932     | 3.4508     |  23.9 | 17.09
Output  | 3.9816e-05 | 6.1909e-05 | 0.00015712 |   0.0 |  0.00
Modify  | 0.42537    | 0.43636    | 0.44896    |   1.1 |  2.58
Other   |            | 0.222      |            |       |  1.31

Nlocal:        1034.67 ave        1064 max         983 min
Histogram: 1 0 0 1 0 1 0 0 0 3
Nghost:        10387.3 ave       10449 max       10320 min
Histogram: 2 0 0 0 1 0 1 0 0 2
Neighs:        77542.0 ave       84393 max       72102 min
Histogram: 2 0 1 0 0 1 0 1 0 1

Total # of neighbors = 465252
Ave neighs/atom = 74.943943
Ave special neighs/atom = 1.9793814
Neighbor list builds = 365
Dangerous builds = 0

if "${myDensity} > 1.0" then "jump SELF break"

next a
jump SELF loop
variable a loop 1000
change_box all x scale 0.95 y scale 0.95 z scale 0.95 remap
Changing box ...
  orthogonal box = (543.31905 540.33585 540.33585) to (656.68095 659.66415 659.66415)
  orthogonal box = (543.31905 543.31905 540.33585) to (656.68095 656.68095 659.66415)
  orthogonal box = (543.31905 543.31905 543.31905) to (656.68095 656.68095 656.68095)
run 8000
Per MPI rank memory allocation (min/avg/max) = 11.90 | 11.93 | 11.97 Mbytes
Step PotEng Temp Press KinEng Lx Ly Lz Pzz S/CPU Density 
 1366001    1937.6778    396.49277    1996.3822    7335.8647    113.36189    113.36189    113.36189    1942.9993            0   0.79401931 
 1374001   -955.34043    405.17465    127.51817    7496.4959    113.36189    113.36189    113.36189    153.71002    423.32396   0.79401931 
Loop time of 18.8982 on 6 procs for 8000 steps with 6208 atoms

Performance: 365.750 ns/day, 0.066 hours/ns, 423.321 timesteps/s
96.1% CPU use with 6 MPI tasks x no OpenMP threads

MPI task timing breakdown:
Section |  min time  |  avg time  |  max time  |%varavg| %total
---------------------------------------------------------------
Pair    | 13.457     | 13.539     | 13.65      |   1.6 | 71.64
Bond    | 0.095694   | 0.09668    | 0.097568   |   0.3 |  0.51
Neigh   | 1.9762     | 1.9769     | 1.9777     |   0.0 | 10.46
Comm    | 2.4597     | 2.6138     | 2.7137     |   5.2 | 13.83
Output  | 4.1008e-05 | 6.1909e-05 | 0.0001471  |   0.0 |  0.00
Modify  | 0.43464    | 0.43643    | 0.43837    |   0.2 |  2.31
Other   |            | 0.235      |            |       |  1.24

Nlocal:        1034.67 ave        1054 max        1007 min
Histogram: 1 0 0 0 0 2 1 1 0 1
Nghost:        11421.2 ave       11442 max       11404 min
Histogram: 1 1 0 1 1 0 0 1 0 1
Neighs:        90072.7 ave       92090 max       86380 min
Histogram: 1 0 0 0 0 1 1 0 1 2

Total # of neighbors = 540436
Ave neighs/atom = 87.054768
Ave special neighs/atom = 1.9793814
Neighbor list builds = 370
Dangerous builds = 0

if "${myDensity} > 1.0" then "jump SELF break"

next a
jump SELF loop
variable a loop 1000
change_box all x scale 0.95 y scale 0.95 z scale 0.95 remap
Changing box ...
  orthogonal box = (546.15310 543.31905 543.31905) to (653.84690 656.68095 656.68095)
  orthogonal box = (546.15310 546.15310 543.31905) to (653.84690 653.84690 656.68095)
  orthogonal box = (546.15310 546.15310 546.15310) to (653.84690 653.84690 653.84690)
run 8000
Per MPI rank memory allocation (min/avg/max) = 12.30 | 12.32 | 12.37 Mbytes
Step PotEng Temp Press KinEng Lx Ly Lz Pzz S/CPU Density 
 1374001    1914.9707    405.17465    2532.6404    7496.4959     107.6938     107.6938     107.6938    2579.9345            0   0.92610504 
 1382001   -1634.4745    401.92221    218.23058    7436.3196     107.6938     107.6938     107.6938    241.96918    379.29804   0.92610504 
Loop time of 21.0917 on 6 procs for 8000 steps with 6208 atoms

Performance: 327.712 ns/day, 0.073 hours/ns, 379.296 timesteps/s
96.3% CPU use with 6 MPI tasks x no OpenMP threads

MPI task timing breakdown:
Section |  min time  |  avg time  |  max time  |%varavg| %total
---------------------------------------------------------------
Pair    | 15.516     | 15.734     | 15.979     |   3.8 | 74.60
Bond    | 0.095976   | 0.09758    | 0.098486   |   0.3 |  0.46
Neigh   | 1.9564     | 1.9584     | 1.9602     |   0.1 |  9.29
Comm    | 2.3848     | 2.6177     | 2.8679     |   9.3 | 12.41
Output  | 4.6968e-05 | 6.7433e-05 | 0.00016308 |   0.0 |  0.00
Modify  | 0.43113    | 0.43638    | 0.43861    |   0.4 |  2.07
Other   |            | 0.2481     |            |       |  1.18

Nlocal:        1034.67 ave        1052 max        1022 min
Histogram: 2 1 0 1 0 0 0 0 0 2
Nghost:        12553.2 ave       12625 max       12510 min
Histogram: 1 1 0 2 1 0 0 0 0 1
Neighs:        105162.0 ave      107831 max      102317 min
Histogram: 1 1 0 0 1 1 0 0 0 2

Total # of neighbors = 630969
Ave neighs/atom = 101.63805
Ave special neighs/atom = 1.9793814
Neighbor list builds = 361
Dangerous builds = 0

if "${myDensity} > 1.0" then "jump SELF break"

next a
jump SELF loop
variable a loop 1000
change_box all x scale 0.95 y scale 0.95 z scale 0.95 remap
Changing box ...
  orthogonal box = (548.84545 546.15310 546.15310) to (651.15455 653.84690 653.84690)
  orthogonal box = (548.84545 548.84545 546.15310) to (651.15455 651.15455 653.84690)
  orthogonal box = (548.84545 548.84545 548.84545) to (651.15455 651.15455 651.15455)
run 8000
Per MPI rank memory allocation (min/avg/max) = 12.31 | 12.34 | 12.38 Mbytes
Step PotEng Temp Press KinEng Lx Ly Lz Pzz S/CPU Density 
 1382001    1641.7064    401.92221    3235.2575    7436.3196    102.30911    102.30911    102.30911    3285.5806            0    1.0801633 
 1390001   -2203.6836    402.18438    652.01377    7441.1704    102.30911    102.30911    102.30911    664.44734    327.63647    1.0801633 
Loop time of 24.4174 on 6 procs for 8000 steps with 6208 atoms

Performance: 283.077 ns/day, 0.085 hours/ns, 327.635 timesteps/s
96.8% CPU use with 6 MPI tasks x no OpenMP threads

MPI task timing breakdown:
Section |  min time  |  avg time  |  max time  |%varavg| %total
---------------------------------------------------------------
Pair    | 17.857     | 18.364     | 18.72      |   6.7 | 75.21
Bond    | 0.090936   | 0.093836   | 0.098348   |   1.0 |  0.38
Neigh   | 2.3733     | 2.3755     | 2.378      |   0.1 |  9.73
Comm    | 2.5617     | 2.887      | 3.4066     |  16.6 | 11.82
Output  | 3.8862e-05 | 5.7936e-05 | 0.00013995 |   0.0 |  0.00
Modify  | 0.43382    | 0.43643    | 0.43819    |   0.3 |  1.79
Other   |            | 0.2607     |            |       |  1.07

Nlocal:        1034.67 ave        1045 max        1025 min
Histogram: 1 1 0 1 0 1 0 0 0 2
Nghost:        13774.5 ave       13819 max       13735 min
Histogram: 1 0 1 1 1 0 0 1 0 1
Neighs:        122901.0 ave      125848 max      119615 min
Histogram: 1 0 0 1 2 0 0 0 0 2

Total # of neighbors = 737405
Ave neighs/atom = 118.78302
Ave special neighs/atom = 1.9793814
Neighbor list builds = 367
Dangerous builds = 0

if "${myDensity} > 1.0" then "jump SELF break"
jump SELF break

####Replicate to form slab

replicate 1 1 7
Replicating atoms ...
  orthogonal box = (548.84545 548.84545 548.84545) to (651.15455 651.15455 1265.0092)
  1 by 1 by 6 MPI processor grid
  43456 atoms
  43008 bonds
Finding 1-2 1-3 1-4 neighbors ...
  special bond factors lj:    0        1        1       
  special bond factors coul:  0        1        1       
     2 = max # of 1-2 neighbors
     6 = max # of special neighbors
  special bonds CPU = 0.001 seconds
  replicate CPU = 0.005 seconds

run 1
Per MPI rank memory allocation (min/avg/max) = 26.63 | 26.65 | 26.69 Mbytes
Step PotEng Temp Press KinEng Lx Ly Lz Pzz S/CPU Density 
 1390001   -15425.785    402.12885    652.01377    52088.193    102.30911    102.30911    716.16376    664.44734            0    1.0801633 
 1390002   -15408.649    401.88262    653.17375    52056.298    102.30911    102.30911    716.16376    664.48582     49.03898    1.0801633 
Loop time of 0.0204247 on 6 procs for 1 steps with 43456 atoms

Performance: 42.302 ns/day, 0.567 hours/ns, 48.960 timesteps/s
97.5% CPU use with 6 MPI tasks x no OpenMP threads

MPI task timing breakdown:
Section |  min time  |  avg time  |  max time  |%varavg| %total
---------------------------------------------------------------
Pair    | 0.019047   | 0.019238   | 0.019369   |   0.1 | 94.19
Bond    | 0.00014806 | 0.00014937 | 0.00015211 |   0.0 |  0.73
Neigh   | 0          | 0          | 0          |   0.0 |  0.00
Comm    | 0.00035691 | 0.00048276 | 0.00065303 |   0.0 |  2.36
Output  | 7.391e-05  | 8.2652e-05 | 0.0001111  |   0.0 |  0.40
Modify  | 0.00037479 | 0.00037996 | 0.0003829  |   0.0 |  1.86
Other   |            | 9.231e-05  |            |       |  0.45

Nlocal:        7242.67 ave        7247 max        7239 min
Histogram: 1 1 1 0 0 0 1 1 0 1
Nghost:        29405.0 ave       29453 max       29338 min
Histogram: 1 0 0 1 0 1 0 0 2 1
Neighs:        860306.0 ave      865240 max      855370 min
Histogram: 2 1 0 0 0 0 0 0 1 2

Total # of neighbors = 5161835
Ave neighs/atom = 118.78302
Ave special neighs/atom = 1.9793814
Neighbor list builds = 0
Dangerous builds = 0

###Delete replicated atoms

group under molecule < 129
12416 atoms in group under
group over molecule  > 192
24832 atoms in group over
group replica union under over
37248 atoms in group replica
delete_atoms group replica
WARNING: Ignoring 'compress yes' for molecular system (../delete_atoms.cpp:125)
Deleted 37248 atoms, new total = 6208

###Run simulation

fix           fixcentro all recenter INIT INIT INIT
fix           fxbal  all balance 1000 1.05 rcb

compute densidad all chunk/atom bin/1d z lower 0.01 units reduced
fix 3 all ave/chunk 1000 70 100000 densidad density/mass file den-$d-$T.profile
fix 3 all ave/chunk 1000 70 100000 densidad density/mass file den-TIA_WT-$T.profile
fix 3 all ave/chunk 1000 70 100000 densidad density/mass file den-TIA_WT-390.profile

compute  rad all gyration
variable t equal step
variable r equal c_rad
fix      radfile all print 10000 "$t $r" file rad-$d-$T.dat screen no
fix      radfile all print 10000 "$t $r" file rad-TIA_WT-$T.dat screen no
fix      radfile all print 10000 "$t $r" file rad-TIA_WT-390.dat screen no

compute	msd all msd com yes
fix	msd all ave/time 1 1 10000 c_msd[4] file mds-$d-$T.dat
fix	msd all ave/time 1 1 10000 c_msd[4] file mds-TIA_WT-$T.dat
fix	msd all ave/time 1 1 10000 c_msd[4] file mds-TIA_WT-390.dat

run 10000000
Per MPI rank memory allocation (min/avg/max) = 28.86 | 29.13 | 30.08 Mbytes
Step PotEng Temp Press KinEng Lx Ly Lz Pzz S/CPU Density 
 1390002   -1452.7748    402.02473      87.4302    7438.2165    102.30911    102.30911    716.16376    89.480634            0   0.15430905 
 2000000    533.28635    385.95711    9.0198809    7140.9353    102.30911    102.30911    716.16376    13.746654    744.66315   0.15430905 
 3000000    601.93048    395.36414    3.1110592     7314.983    102.30911    102.30911    716.16376    4.7923334    874.14872   0.15430905 
 4000000    496.99151    386.92971     6.545447    7158.9302    102.30911    102.30911    716.16376    7.4034626    941.05699   0.15430905 
 5000000    594.82418    396.46302    4.5315105    7335.3144    102.30911    102.30911    716.16376    6.5052051    882.28467   0.15430905 
 6000000    618.26559    391.45847   -0.2874174    7242.7208    102.30911    102.30911    716.16376    1.3932438    964.85516   0.15430905 
 7000000    529.24343    393.38796    2.8401781      7278.42    102.30911    102.30911    716.16376    7.2936576    969.91689   0.15430905 
 8000000    747.79039    394.40206   0.90272857    7297.1827    102.30911    102.30911    716.16376    4.4808826    967.09493   0.15430905 
 9000000     586.2678    388.64361  -0.51353341    7190.6406    102.30911    102.30911    716.16376   -2.2472182     922.2691   0.15430905 
10000000    487.70373    389.55536  0.019711187    7207.5095    102.30911    102.30911    716.16376   -2.5541862    915.82857   0.15430905 
11000000    510.96607     389.0277   -3.6314249     7197.747    102.30911    102.30911    716.16376   -1.8541112    925.67838   0.15430905 
11390002    603.80987    393.11131   -1.6006401    7273.3013    102.30911    102.30911    716.16376    2.3575348    927.74961   0.15430905 
Loop time of 10937.5 on 6 procs for 10000000 steps with 6208 atoms

Performance: 789.943 ns/day, 0.030 hours/ns, 914.285 timesteps/s
99.5% CPU use with 6 MPI tasks x no OpenMP threads

MPI task timing breakdown:
Section |  min time  |  avg time  |  max time  |%varavg| %total
---------------------------------------------------------------
Pair    | 5185.5     | 6525.9     | 7184.9     | 825.4 | 59.67
Bond    | 108.32     | 109.64     | 110.45     |   6.4 |  1.00
Neigh   | 1131.7     | 1136.9     | 1144.2     |  12.7 | 10.39
Comm    | 1438.4     | 1856.6     | 2619.4     | 886.0 | 16.97
Output  | 0.42988    | 0.46672    | 0.48618    |   2.7 |  0.00
Modify  | 782.83     | 1159.7     | 1678.8     | 859.6 | 10.60
Other   |            | 148.4      |            |       |  1.36

Nlocal:        1034.67 ave        1073 max         985 min
Histogram: 2 0 0 0 0 0 0 2 1 1
Nghost:        4768.83 ave        5389 max        4325 min
Histogram: 2 0 1 0 1 0 0 1 0 1
Neighs:        31961.5 ave       35560 max       25345 min
Histogram: 1 0 0 0 1 0 0 2 0 2

Total # of neighbors = 191769
Ave neighs/atom = 30.890625
Ave special neighs/atom = 1.9793814
Neighbor list builds = 426897
Dangerous builds = 0

write_data data$d-$T.out
write_data dataTIA_WT-$T.out
write_data dataTIA_WT-390.out
System init for write_data ...

shell cd ..

clear

next x

jump SELF loopT

next d
Total wall time: 19:08:41
