
bond_style  harmonic
dielectric  80.0

set type 25 charge 0.75
Setting atom values ...
  0 settings made for charge
set type 27 charge -0.75
Setting atom values ...
  0 settings made for charge
set type 28 charge -0.75
Setting atom values ...
  0 settings made for charge
set type 36 charge 0.375
Setting atom values ...
  0 settings made for charge
set type 23 charge 0.75
Setting atom values ...
  0 settings made for charge

set type 5 charge 0.75
Setting atom values ...
  1 settings made for charge
set type 7 charge -0.75
Setting atom values ...
  0 settings made for charge
set type 3  charge 0.75
Setting atom values ...
  0 settings made for charge
set type 16 charge 0.375
Setting atom values ...
  0 settings made for charge
set type 8  charge -0.75
Setting atom values ...
  1 settings made for charge

bond_coeff          1     9.600     3.81
#bond_coeff          2     9.600     5.00

pair_style  hybrid/overlay wf/cut 25.0 coul/debye 0.126 0.0

pair_coeff 30 30 wf/cut 0.004751 6.45565 1 3 19.367
pair_coeff 1 1 wf/cut 0.039564 6.467950871367303 1 2 19.403852614101908
pair_coeff 1 2 wf/cut 0.068017 5.576178403526399 1 2 16.728535210579196
pair_coeff 1 3 wf/cut 0.032686 6.5677835361737795 1 2 19.70335060852134
pair_coeff 1 4 wf/cut 0.035161 6.178228033595178 1 2 18.534684100785533
pair_coeff 1 5 wf/cut 0.171515 6.643964892255349 1 2 19.93189467676605
pair_coeff 1 6 wf/cut 0.044522 5.868502140125925 1 2 17.605506420377775
pair_coeff 1 7 wf/cut 0.073172 6.14145960937047 1 2 18.424378828111408
pair_coeff 1 8 wf/cut 0.077577 6.318176525841784 1 2 18.95452957752535
pair_coeff 1 9 wf/cut 0.229375 6.590037435016079 1 2 19.770112305048237
pair_coeff 1 10 wf/cut 0.022571 6.320571545407576 1 2 18.96171463622273
pair_coeff 1 11 wf/cut 0.025281 6.483443734640188 1 2 19.450331203920562
pair_coeff 1 12 wf/cut 0.120006 6.36518785664648 1 2 19.09556356993944
pair_coeff 1 13 wf/cut 0.294931 6.755728450520449 1 2 20.267185351561345
pair_coeff 1 14 wf/cut 0.215603 6.538208522101147 1 2 19.61462556630344
pair_coeff 1 15 wf/cut 0.050582 5.938940625510648 1 2 17.816821876531947
pair_coeff 1 16 wf/cut 0.203491 6.392507281968151 1 2 19.177521845904455
pair_coeff 1 17 wf/cut 0.116706 6.188018494610175 1 2 18.564055483830522
pair_coeff 1 18 wf/cut 0.059120 6.1344640513130955 1 2 18.403392153939286
pair_coeff 1 19 wf/cut 0.054437 6.094294827619396 1 2 18.282884482858186
pair_coeff 1 20 wf/cut 0.019979 6.496393035701747 1 2 19.48917910710524
pair_coeff 1 21 wf/cut 0.033511 6.472967463905089 1 2 19.418902391715267
pair_coeff 1 22 wf/cut 0.053464 5.579884038976499 1 2 16.7396521169295
pair_coeff 1 23 wf/cut 0.028840 6.572908139010548 1 2 19.718724417031645
pair_coeff 1 24 wf/cut 0.030487 6.183085528083141 1 2 18.549256584249424
pair_coeff 1 25 wf/cut 0.126057 6.646517494086263 1 2 19.93955248225879
pair_coeff 1 26 wf/cut 0.037087 5.873266644604083 1 2 17.61979993381225
pair_coeff 1 27 wf/cut 0.057192 6.145621669676131 1 2 18.43686500902839
pair_coeff 1 28 wf/cut 0.060220 6.322430858089529 1 2 18.967292574268587
pair_coeff 1 29 wf/cut 0.166559 6.592040039094211 1 2 19.776120117282634
pair_coeff 1 30 wf/cut 0.022157 6.322886509244067 1 2 18.9686595277322
pair_coeff 1 31 wf/cut 0.023649 6.486360198534797 1 2 19.45908059560439
pair_coeff 1 32 wf/cut 0.089698 6.368425539955892 1 2 19.105276619867674
pair_coeff 1 33 wf/cut 0.212282 6.7573688868401405 1 2 20.27210666052042
pair_coeff 1 34 wf/cut 0.156918 6.5402914181442595 1 2 19.620874254432778
pair_coeff 1 35 wf/cut 0.041217 5.943583554201671 1 2 17.830750662605013
pair_coeff 1 36 wf/cut 0.148384 6.394666170151445 1 2 19.183998510454334
pair_coeff 1 37 wf/cut 0.087498 6.191219964195186 1 2 18.57365989258556
pair_coeff 1 38 wf/cut 0.047275 6.139108925912469 1 2 18.417326777737408
pair_coeff 1 39 wf/cut 0.043970 6.098946985727069 1 2 18.296840957181207
pair_coeff 1 40 wf/cut 0.019979 6.496393035701747 1 2 19.48917910710524
pair_coeff 2 2 wf/cut 0.096470 4.695110240398406 1 2 14.085330721195216
pair_coeff 2 3 wf/cut 0.061139 5.671338290828199 1 2 17.014014872484598
pair_coeff 2 4 wf/cut 0.063614 5.284424971479424 1 2 15.85327491443827
pair_coeff 2 5 wf/cut 0.199968 5.766386193227936 1 2 17.299158579683805
pair_coeff 2 6 wf/cut 0.072975 4.980134552672144 1 2 14.940403658016432
pair_coeff 2 7 wf/cut 0.101625 5.2592548053112145 1 2 15.777764415933643
pair_coeff 2 8 wf/cut 0.106030 5.436374588857539 1 2 16.30912376657262
pair_coeff 2 9 wf/cut 0.257828 5.7131654456309935 1 2 17.139496336892982
pair_coeff 2 10 wf/cut 0.051024 5.412393397897493 1 2 16.23718019369248
pair_coeff 2 11 wf/cut 0.053734 5.578930397816427 1 2 16.736791193449278
pair_coeff 2 12 wf/cut 0.148459 5.486299347261422 1 2 16.458898041784266
pair_coeff 2 13 wf/cut 0.323384 5.879238002082802 1 2 17.63771400624841
pair_coeff 2 14 wf/cut 0.244056 5.661218822883835 1 2 16.983656468651503
pair_coeff 2 15 wf/cut 0.079035 5.052524512175333 1 2 15.157573536526
pair_coeff 2 16 wf/cut 0.231944 5.515411637199979 1 2 16.54623491159994
pair_coeff 2 17 wf/cut 0.145159 5.3090163197417555 1 2 15.927048959225267
pair_coeff 2 18 wf/cut 0.087573 5.249990542761369 1 2 15.749971628284106
pair_coeff 2 19 wf/cut 0.082890 5.208722790322849 1 2 15.626168370968546
pair_coeff 2 20 wf/cut 0.048432 5.580329252471181 1 2 16.740987757413542
pair_coeff 2 21 wf/cut 0.061964 5.577215175821233 1 2 16.731645527463698
pair_coeff 2 22 wf/cut 0.081917 4.696396560631559 1 2 14.089189681894677
pair_coeff 2 23 wf/cut 0.057293 5.67211261999139 1 2 17.016337859974172
pair_coeff 2 24 wf/cut 0.058940 5.285212528563172 1 2 15.855637585689518
pair_coeff 2 25 wf/cut 0.154510 5.767769508320207 1 2 17.30330852496062
pair_coeff 2 26 wf/cut 0.065540 4.981125987510791 1 2 14.943377962532374
pair_coeff 2 27 wf/cut 0.085645 5.260651874488179 1 2 15.781955623464537
pair_coeff 2 28 wf/cut 0.088673 5.437809343618614 1 2 16.313428030855842
pair_coeff 2 29 wf/cut 0.195012 5.714358676536591 1 2 17.143076029609773
pair_coeff 2 30 wf/cut 0.050610 5.412530359493723 1 2 16.23759107848117
pair_coeff 2 31 wf/cut 0.052102 5.579325356579805 1 2 16.737976069739414
pair_coeff 2 32 wf/cut 0.118151 5.487774115196598 1 2 16.463322345589795
pair_coeff 2 33 wf/cut 0.240735 5.880303283956183 1 2 17.64090985186855
pair_coeff 2 34 wf/cut 0.185371 5.662447134978403 1 2 16.987341404935208
pair_coeff 2 35 wf/cut 0.069670 5.053695239348068 1 2 15.161085718044204
pair_coeff 2 36 wf/cut 0.176837 5.516638738971832 1 2 16.549916216915495
pair_coeff 2 37 wf/cut 0.115951 5.310437234694913 1 2 15.931311704084738
pair_coeff 2 38 wf/cut 0.075728 5.251325825579545 1 2 15.753977476738633
pair_coeff 2 39 wf/cut 0.072423 5.20997288304294 1 2 15.629918649128818
pair_coeff 2 40 wf/cut 0.048432 5.580329252471181 1 2 16.740987757413542
pair_coeff 3 3 wf/cut 0.019117 6.671340524039856 1 2 20.014021572119567
pair_coeff 3 4 wf/cut 0.028283 6.279399881910995 1 2 18.838199645732985
pair_coeff 3 5 wf/cut 0.121938 6.73819193132635 1 2 20.21457579397905
pair_coeff 3 6 wf/cut 0.037644 5.966686347623176 1 2 17.90005904286953
pair_coeff 3 7 wf/cut 0.000493 6.236987380482699 1 2 18.710962141448096
pair_coeff 3 8 wf/cut 0.000526 6.413575163938182 1 2 19.240725491814544
pair_coeff 3 9 wf/cut 0.102701 6.684083406034673 1 2 20.052250218104017
pair_coeff 3 10 wf/cut 0.015693 6.433541011383533 1 2 19.3006230341506
pair_coeff 3 11 wf/cut 0.018403 6.592557574989555 1 2 19.777672724968664
pair_coeff 3 12 wf/cut 0.113128 6.4596938105680355 1 2 19.37908143170411
pair_coeff 3 13 wf/cut 0.104796 6.849685211660051 1 2 20.549055634980153
pair_coeff 3 14 wf/cut 0.115276 6.632280360446061 1 2 19.896841081338184
pair_coeff 3 15 wf/cut 0.043704 6.036179732070119 1 2 18.10853919621036
pair_coeff 3 16 wf/cut 0.087370 6.4866030031823305 1 2 19.45980900954699
pair_coeff 3 17 wf/cut 0.109828 6.2825460057664415 1 2 18.847638017299325
pair_coeff 3 18 wf/cut 0.052242 6.2310615597122725 1 2 18.693184679136817
pair_coeff 3 19 wf/cut 0.047559 6.191153675456269 1 2 18.573461026368804
pair_coeff 3 20 wf/cut 0.013101 6.617996254538358 1 2 19.853988763615074
pair_coeff 3 21 wf/cut 0.026633 6.575236990212751 1 2 19.725710970638254
pair_coeff 3 22 wf/cut 0.046586 5.67591070475063 1 2 17.02773211425189
pair_coeff 3 23 wf/cut 0.016267 6.6786690213492745 1 2 20.036007064047823
pair_coeff 3 24 wf/cut 0.023609 6.28697050091405 1 2 18.860911502742148
pair_coeff 3 25 wf/cut 0.088471 6.7410021187479785 1 2 20.223006356243935
pair_coeff 3 26 wf/cut 0.030209 5.973496417353158 1 2 17.920489252059475
pair_coeff 3 27 wf/cut 0.000375 6.242202340571064 1 2 18.726607021713193
pair_coeff 3 28 wf/cut 0.000395 6.41884518513886 1 2 19.25653555541658
pair_coeff 3 29 wf/cut 0.087295 6.686244113621416 1 2 20.058732340864246
pair_coeff 3 30 wf/cut 0.015279 6.438064853494475 1 2 19.314194560483426
pair_coeff 3 31 wf/cut 0.016771 6.597859600272992 1 2 19.793578800818977
pair_coeff 3 32 wf/cut 0.082820 6.463434808995108 1 2 19.390304426985324
pair_coeff 3 33 wf/cut 0.089077 6.851438991432198 1 2 20.554316974296594
pair_coeff 3 34 wf/cut 0.097985 6.634536462444846 1 2 19.903609387334537
pair_coeff 3 35 wf/cut 0.034339 6.042553594266142 1 2 18.127660782798426
pair_coeff 3 36 wf/cut 0.062880 6.488951472342971 1 2 19.466854417028912
pair_coeff 3 37 wf/cut 0.080620 6.286259565568102 1 2 18.858778696704306
pair_coeff 3 38 wf/cut 0.040397 6.23694969931501 1 2 18.71084909794503
pair_coeff 3 39 wf/cut 0.037092 6.197406382364393 1 2 18.59221914709318
pair_coeff 3 40 wf/cut 0.013101 6.617996254538358 1 2 19.853988763615074
pair_coeff 4 4 wf/cut 0.030758 5.8890615748048605 1 2 17.667184724414582
pair_coeff 4 5 wf/cut 0.167112 6.352015695367313 1 2 19.056047086101938
pair_coeff 4 6 wf/cut 0.040119 5.577947754246859 1 2 16.733843262740578
pair_coeff 4 7 wf/cut 0.068769 5.849866323299111 1 2 17.549598969897332
pair_coeff 4 8 wf/cut 0.073174 6.026541387517959 1 2 18.079624162553877
pair_coeff 4 9 wf/cut 0.224972 6.298063007043266 1 2 18.894189021129797
pair_coeff 4 10 wf/cut 0.018168 6.03696547344559 1 2 18.11089642033677
pair_coeff 4 11 wf/cut 0.020878 6.198088878491606 1 2 18.594266635474817
pair_coeff 4 12 wf/cut 0.115603 6.073287961608412 1 2 18.219863884825237
pair_coeff 4 13 wf/cut 0.290527 6.463775207339586 1 2 19.39132562201876
pair_coeff 4 14 wf/cut 0.211200 6.246251077325644 1 2 18.73875323197693
pair_coeff 4 15 wf/cut 0.046179 5.648007650359314 1 2 16.94402295107794
pair_coeff 4 16 wf/cut 0.199088 6.1005286446452045 1 2 18.301585933935613
pair_coeff 4 17 wf/cut 0.112303 5.896099182190375 1 2 17.688297546571125
pair_coeff 4 18 wf/cut 0.054717 5.84319611761197 1 2 17.52958835283591
pair_coeff 4 19 wf/cut 0.050034 5.803211551983609 1 2 17.40963465595083
pair_coeff 4 20 wf/cut 0.015576 6.214617146494642 1 2 18.643851439483925
pair_coeff 4 21 wf/cut 0.029108 6.184377266229273 1 2 18.55313179868782
pair_coeff 4 22 wf/cut 0.049061 5.288433024843104 1 2 15.865299074529311
pair_coeff 4 23 wf/cut 0.024437 6.285985931141882 1 2 18.857957793425648
pair_coeff 4 24 wf/cut 0.026084 5.895181038887271 1 2 17.685543116661812
pair_coeff 4 25 wf/cut 0.121654 6.3546176961456355 1 2 19.063853088436908
pair_coeff 4 26 wf/cut 0.032684 5.583620888610048 1 2 16.75086266583014
pair_coeff 4 27 wf/cut 0.052789 5.854435916763915 1 2 17.563307750291745
pair_coeff 4 28 wf/cut 0.055817 6.031184910048361 1 2 18.093554730145083
pair_coeff 4 29 wf/cut 0.162155 6.300073473520442 1 2 18.900220420561325
pair_coeff 4 30 wf/cut 0.017754 6.038590687548953 1 2 18.115772062646858
pair_coeff 4 31 wf/cut 0.019246 6.20213243224441 1 2 18.606397296733228
pair_coeff 4 32 wf/cut 0.085295 6.076667470375622 1 2 18.230002411126865
pair_coeff 4 33 wf/cut 0.207879 6.4653998696548625 1 2 19.396199608964587
pair_coeff 4 34 wf/cut 0.152515 6.248347277402027 1 2 18.74504183220608
pair_coeff 4 35 wf/cut 0.036814 5.653400669933968 1 2 16.960202009801904
pair_coeff 4 36 wf/cut 0.143981 6.1027057764377375 1 2 18.308117329313212
pair_coeff 4 37 wf/cut 0.083095 5.899444861363162 1 2 17.698334584089487
pair_coeff 4 38 wf/cut 0.042872 5.848454222246143 1 2 17.545362666738427
pair_coeff 4 39 wf/cut 0.039567 5.808550835350359 1 2 17.425652506051076
pair_coeff 4 40 wf/cut 0.015576 6.214617146494642 1 2 18.643851439483925
pair_coeff 5 5 wf/cut 0.089916 6.839051042416954 1 2 20.51715312725086
pair_coeff 5 6 wf/cut 0.176473 6.049093128275473 1 2 18.14727938482642
pair_coeff 5 7 wf/cut 0.001522 6.329860382208001 1 2 18.989581146624005
pair_coeff 5 8 wf/cut 0.001554 6.507087894628845 1 2 19.521263683886534
pair_coeff 5 9 wf/cut 0.607820 6.786238537205683 1 2 20.358715611617047
pair_coeff 5 10 wf/cut 0.154522 6.477800731622431 1 2 19.433402194867295
pair_coeff 5 11 wf/cut 0.157232 6.644606745714045 1 2 19.933820237142136
pair_coeff 5 12 wf/cut 0.251957 6.5582801074116395 1 2 19.674840322234918
pair_coeff 5 13 wf/cut 0.691657 6.952550947859904 1 2 20.85765284357971
pair_coeff 5 14 wf/cut 0.544942 6.734244851368496 1 2 20.20273455410549
pair_coeff 5 15 wf/cut 0.182533 6.121907195991114 1 2 18.365721587973344
pair_coeff 5 16 wf/cut 0.124237 6.588371399225676 1 2 19.76511419767703
pair_coeff 5 17 wf/cut 0.248657 6.381027696653046 1 2 19.143083089959138
pair_coeff 5 18 wf/cut 0.191071 6.319850876308843 1 2 18.95955262892653
pair_coeff 5 19 wf/cut 0.186388 6.2782756347766915 1 2 18.834826904330075
pair_coeff 5 20 wf/cut 0.151930 6.644914452592528 1 2 19.934743357777585
pair_coeff 5 21 wf/cut 0.165462 6.6442230427261695 1 2 19.93266912817851
pair_coeff 5 22 wf/cut 0.185415 5.7668587075646895 1 2 17.300576122694068
pair_coeff 5 23 wf/cut 0.160791 6.738370816695987 1 2 20.21511245008796
pair_coeff 5 24 wf/cut 0.162438 6.352227758045304 1 2 19.056683274135914
pair_coeff 5 25 wf/cut 0.076528 6.839775073180529 1 2 20.519325219541585
pair_coeff 5 26 wf/cut 0.169038 6.0493803544908396 1 2 18.14814106347252
pair_coeff 5 27 wf/cut 0.001403 6.330338025744615 1 2 18.991014077233842
pair_coeff 5 28 wf/cut 0.001424 6.507609785991295 1 2 19.522829357973883
pair_coeff 5 29 wf/cut 0.516647 6.786966179847217 1 2 20.36089853954165
pair_coeff 5 30 wf/cut 0.154108 6.477855546012645 1 2 19.433566638037934
pair_coeff 5 31 wf/cut 0.155600 6.644688317632491 1 2 19.934064952897472
pair_coeff 5 32 wf/cut 0.221649 6.558922216808411 1 2 19.676766650425233
pair_coeff 5 33 wf/cut 0.587908 6.953270762564632 1 2 20.859812287693895
pair_coeff 5 34 wf/cut 0.463200 6.734965561624807 1 2 20.20489668487442
pair_coeff 5 35 wf/cut 0.173168 6.122239691611766 1 2 18.366719074835295
pair_coeff 5 36 wf/cut 0.103828 6.589083179632521 1 2 19.767249538897563
pair_coeff 5 37 wf/cut 0.219449 6.381655047319296 1 2 19.14496514195789
pair_coeff 5 38 wf/cut 0.179226 6.320242196579514 1 2 18.96072658973854
pair_coeff 5 39 wf/cut 0.175921 6.27864243896636 1 2 18.83592731689908
pair_coeff 5 40 wf/cut 0.151930 6.644914452592528 1 2 19.934743357777585
pair_coeff 6 6 wf/cut 0.049480 5.270073550243385 1 2 15.810220650730155
pair_coeff 6 7 wf/cut 0.078130 5.545103888084069 1 2 16.635311664252207
pair_coeff 6 8 wf/cut 0.082535 5.721983178129665 1 2 17.165949534388993
pair_coeff 6 9 wf/cut 0.234333 5.995374866482686 1 2 17.986124599448058
pair_coeff 6 10 wf/cut 0.027529 5.714672842433839 1 2 17.14401852730152
pair_coeff 6 11 wf/cut 0.030239 5.879183169613761 1 2 17.637549508841282
pair_coeff 6 12 wf/cut 0.124964 5.769878425481944 1 2 17.30963527644583
pair_coeff 6 13 wf/cut 0.299889 6.1612197345718664 1 2 18.4836592037156
pair_coeff 6 14 wf/cut 0.220561 5.943524169558512 1 2 17.830572508675537
pair_coeff 6 15 wf/cut 0.055540 5.341186580911172 1 2 16.023559742733518
pair_coeff 6 16 wf/cut 0.208449 5.797765867232053 1 2 17.393297601696162
pair_coeff 6 17 wf/cut 0.121665 5.592676667454632 1 2 16.778030002363895
pair_coeff 6 18 wf/cut 0.064078 5.537383848868321 1 2 16.612151546604963
pair_coeff 6 19 wf/cut 0.059395 5.496867679432823 1 2 16.490603038298467
pair_coeff 6 20 wf/cut 0.024937 5.887264113119765 1 2 17.661792339359295
pair_coeff 6 21 wf/cut 0.038469 5.872091702440819 1 2 17.616275107322455
pair_coeff 6 22 wf/cut 0.058422 4.983057318967985 1 2 14.949171956903955
pair_coeff 6 23 wf/cut 0.033798 5.970212624670237 1 2 17.91063787401071
pair_coeff 6 24 wf/cut 0.035445 5.581322386503443 1 2 16.743967159510326
pair_coeff 6 25 wf/cut 0.131015 6.051283655448215 1 2 18.153850966344642
pair_coeff 6 26 wf/cut 0.042046 5.273529178305013 1 2 15.82058753491504
pair_coeff 6 27 wf/cut 0.062150 5.548382201124551 1 2 16.645146603373654
pair_coeff 6 28 wf/cut 0.065178 5.725365872076537 1 2 17.17609761622961
pair_coeff 6 29 wf/cut 0.171517 5.997120040197383 1 2 17.991360120592148
pair_coeff 6 30 wf/cut 0.027116 5.716115591130418 1 2 17.148346773391253
pair_coeff 6 31 wf/cut 0.028607 5.881066148485684 1 2 17.643198445457053
pair_coeff 6 32 wf/cut 0.094656 5.77257425641905 1 2 17.317722769257152
pair_coeff 6 33 wf/cut 0.217240 6.16266774871136 1 2 18.48800324613408
pair_coeff 6 34 wf/cut 0.161876 5.945332519051 1 2 17.835997557153
pair_coeff 6 35 wf/cut 0.046175 5.344636755005952 1 2 16.03391026501786
pair_coeff 6 36 wf/cut 0.153342 5.799630893236802 1 2 17.398892679710407
pair_coeff 6 37 wf/cut 0.092457 5.595329366190724 1 2 16.785988098572172
pair_coeff 6 38 wf/cut 0.052233 5.540935423926066 1 2 16.6228062717782
pair_coeff 6 39 wf/cut 0.048928 5.50037559161048 1 2 16.50112677483144
pair_coeff 6 40 wf/cut 0.024937 5.887264113119765 1 2 17.661792339359295
pair_coeff 7 7 wf/cut 0.079096 5.823521721060312 1 2 17.470565163180936
pair_coeff 7 8 wf/cut 0.082359 6.000582237524121 1 2 18.001746712572363
pair_coeff 7 9 wf/cut 0.262983 6.276473791430636 1 2 18.829421374291908
pair_coeff 7 10 wf/cut 0.056178 5.978735433494051 1 2 17.93620630048215
pair_coeff 7 11 wf/cut 0.058888 6.145089275635634 1 2 18.4352678269069
pair_coeff 7 12 wf/cut 0.153614 6.0500403862929435 1 2 18.150121158878832
pair_coeff 7 13 wf/cut 0.328538 6.4424403069543335 1 2 19.327320920863002
pair_coeff 7 14 wf/cut 0.249211 6.224557346027278 1 2 18.673672038081833
pair_coeff 7 15 wf/cut 0.084189 5.617298771179795 1 2 16.851896313539385
pair_coeff 7 16 wf/cut 0.001758 6.078759471752929 1 2 18.236278415258788
pair_coeff 7 17 wf/cut 0.150314 5.872796196825872 1 2 17.618388590477615
pair_coeff 7 18 wf/cut 0.092728 5.81454574012806 1 2 17.44363722038418
pair_coeff 7 19 wf/cut 0.088045 5.773404302618334 1 2 17.320212907855
pair_coeff 7 20 wf/cut 0.053587 6.146988238119009 1 2 18.44096471435703
pair_coeff 7 21 wf/cut 0.067118 6.142810853550669 1 2 18.428432560652006
pair_coeff 7 22 wf/cut 0.087071 5.260822534908925 1 2 15.782467604726776
pair_coeff 7 23 wf/cut 0.062448 6.238009317192061 1 2 18.714027951576185
pair_coeff 7 24 wf/cut 0.064094 5.850906179325341 1 2 17.552718537976023
pair_coeff 7 25 wf/cut 0.159665 6.331479448731908 1 2 18.994438346195725
pair_coeff 7 26 wf/cut 0.070695 5.546505225276659 1 2 16.639515675829976
pair_coeff 7 27 wf/cut 0.067258 5.825264832984326 1 2 17.47579449895298
pair_coeff 7 28 wf/cut 0.069297 6.002427424339147 1 2 18.00728227301744
pair_coeff 7 29 wf/cut 0.200166 6.277866750279897 1 2 18.83360025083969
pair_coeff 7 30 wf/cut 0.055765 5.978921905643417 1 2 17.93676571693025
pair_coeff 7 31 wf/cut 0.057257 6.145621669676131 1 2 18.43686500902839
pair_coeff 7 32 wf/cut 0.123306 6.051811079871612 1 2 18.155433239614837
pair_coeff 7 33 wf/cut 0.245890 6.4436539809330755 1 2 19.330961942799227
pair_coeff 7 34 wf/cut 0.190526 6.225980124267849 1 2 18.677940372803548
pair_coeff 7 35 wf/cut 0.074825 5.6188072088999945 1 2 16.856421626699984
pair_coeff 7 36 wf/cut 0.001350 6.080187764149639 1 2 18.24056329244892
pair_coeff 7 37 wf/cut 0.121106 5.874523045623452 1 2 17.623569136870355
pair_coeff 7 38 wf/cut 0.080883 5.816239431041905 1 2 17.448718293125715
pair_coeff 7 39 wf/cut 0.077578 5.775001596638995 1 2 17.325004789916985
pair_coeff 7 40 wf/cut 0.053587 6.146988238119009 1 2 18.44096471435703
pair_coeff 8 8 wf/cut 0.085622 6.177670315650897 1 2 18.533010946952693
pair_coeff 8 9 wf/cut 0.267388 6.453698205558216 1 2 19.36109461667465
pair_coeff 8 10 wf/cut 0.060583 6.155038804583549 1 2 18.46511641375065
pair_coeff 8 11 wf/cut 0.063293 6.321457293122011 1 2 18.964371879366034
pair_coeff 8 12 wf/cut 0.158019 6.22721384211578 1 2 18.681641526347338
pair_coeff 8 13 wf/cut 0.332943 6.61969178186508 1 2 19.85907534559524
pair_coeff 8 14 wf/cut 0.253616 6.401798946045327 1 2 19.205396838135982
pair_coeff 8 15 wf/cut 0.088594 5.794219764312674 1 2 17.382659292938023
pair_coeff 8 16 wf/cut 0.001791 6.2560007029022255 1 2 18.768002108706675
pair_coeff 8 17 wf/cut 0.154719 6.049988923928926 1 2 18.14996677178678
pair_coeff 8 18 wf/cut 0.097133 5.991524845146615 1 2 17.974574535439846
pair_coeff 8 19 wf/cut 0.092450 5.950364732175825 1 2 17.851094196527477
pair_coeff 8 20 wf/cut 0.057992 6.323325627682127 1 2 18.96997688304638
pair_coeff 8 21 wf/cut 0.071523 6.319407907453407 1 2 18.95822372236022
pair_coeff 8 22 wf/cut 0.091476 5.437918514751647 1 2 16.313755544254942
pair_coeff 8 23 wf/cut 0.066853 6.414637503765215 1 2 19.243912511295648
pair_coeff 8 24 wf/cut 0.068499 6.027610728824833 1 2 18.082832186474498
pair_coeff 8 25 wf/cut 0.164070 6.50867097271995 1 2 19.52601291815985
pair_coeff 8 26 wf/cut 0.075100 5.723271374681476 1 2 17.16981412404443
pair_coeff 8 27 wf/cut 0.095204 6.002225923033709 1 2 18.006677769101127
pair_coeff 8 28 wf/cut 0.072560 6.179413824459994 1 2 18.538241473379983
pair_coeff 8 29 wf/cut 0.204571 6.455074051412765 1 2 19.365222154238296
pair_coeff 8 30 wf/cut 0.060170 6.155372367938502 1 2 18.466117103815506
pair_coeff 8 31 wf/cut 0.061662 6.321931368367982 1 2 18.965794105103946
pair_coeff 8 32 wf/cut 0.127711 6.228922014398231 1 2 18.686766043194694
pair_coeff 8 33 wf/cut 0.250295 6.620903112987423 1 2 19.86270933896227
pair_coeff 8 34 wf/cut 0.194931 6.403201712664134 1 2 19.2096051379924
pair_coeff 8 35 wf/cut 0.079230 5.795615810910755 1 2 17.386847432732267
pair_coeff 8 36 wf/cut 0.001379 6.257425310960982 1 2 18.772275932882945
pair_coeff 8 37 wf/cut 0.125511 6.051653861598323 1 2 18.154961584794968
pair_coeff 8 38 wf/cut 0.085288 5.993104375441103 1 2 17.97931312632331
pair_coeff 8 39 wf/cut 0.081983 5.951847773872721 1 2 17.855543321618164
pair_coeff 8 40 wf/cut 0.057992 6.323325627682127 1 2 18.96997688304638
pair_coeff 9 9 wf/cut 0.419186 6.733634028253079 1 2 20.20090208475924
pair_coeff 9 10 wf/cut 0.212382 6.423549039740656 1 2 19.270647119221966
pair_coeff 9 11 wf/cut 0.215092 6.590387900103195 1 2 19.771163700309586
pair_coeff 9 12 wf/cut 0.309817 6.50524897581083 1 2 19.51574692743249
pair_coeff 9 13 wf/cut 0.484741 6.900050363131952 1 2 20.700151089395856
pair_coeff 9 14 wf/cut 0.405414 6.6815889712242855 1 2 20.044766913672856
pair_coeff 9 15 wf/cut 0.240393 6.068280818635755 1 2 18.204842455907265
pair_coeff 9 16 wf/cut 0.393302 6.535691224609458 1 2 19.607073673828374
pair_coeff 9 17 wf/cut 0.306517 6.327982683666391 1 2 18.98394805099917
pair_coeff 9 18 wf/cut 0.248931 6.266295198960733 1 2 18.798885596882197
pair_coeff 9 19 wf/cut 0.244248 6.2246507773507185 1 2 18.673952332052156
pair_coeff 9 20 wf/cut 0.209790 6.5905505017289965 1 2 19.771651505186988
pair_coeff 9 21 wf/cut 0.223322 6.590180270116687 1 2 19.770540810350063
pair_coeff 9 22 wf/cut 0.243275 5.713450024075365 1 2 17.140350072226095
pair_coeff 9 23 wf/cut 0.218651 6.6841805825849985 1 2 20.052541747754994
pair_coeff 9 24 wf/cut 0.220298 6.298178954636986 1 2 18.894536863910957
pair_coeff 9 25 wf/cut 0.315868 6.786739795335731 1 2 20.360219386007195
pair_coeff 9 26 wf/cut 0.226898 5.99553560612189 1 2 17.98660681836567
pair_coeff 9 27 wf/cut 0.247003 6.276768673597067 1 2 18.8303060207912
pair_coeff 9 28 wf/cut 0.250031 6.454011505099358 1 2 19.362034515298074
pair_coeff 9 29 wf/cut 0.356369 6.734156486173098 1 2 20.202469458519293
pair_coeff 9 30 wf/cut 0.211968 6.4235779793345555 1 2 19.270733938003666
pair_coeff 9 31 wf/cut 0.213460 6.590431338464252 1 2 19.771294015392755
pair_coeff 9 32 wf/cut 0.279509 6.505661229041637 1 2 19.516983687124913
pair_coeff 9 33 wf/cut 0.402093 6.900589936537501 1 2 20.701769809612504
pair_coeff 9 34 wf/cut 0.346729 6.682106650582579 1 2 20.046319951747737
pair_coeff 9 35 wf/cut 0.231028 6.06846960743136 1 2 18.20540882229408
pair_coeff 9 36 wf/cut 0.338195 6.536191669581551 1 2 19.60857500874465
pair_coeff 9 37 wf/cut 0.277309 6.328383771538186 1 2 18.98515131461456
pair_coeff 9 38 wf/cut 0.237086 6.266521616565618 1 2 18.799564849696853
pair_coeff 9 39 wf/cut 0.233781 6.224860927463627 1 2 18.674582782390882
pair_coeff 9 40 wf/cut 0.209790 6.5905505017289965 1 2 19.771651505186988
pair_coeff 10 10 wf/cut 0.005578 6.265999286288815 1 2 18.797997858866445
pair_coeff 10 11 wf/cut 0.008288 6.390932891994093 1 2 19.17279867598228
pair_coeff 10 12 wf/cut 0.103013 6.199729734496916 1 2 18.59918920349075
pair_coeff 10 13 wf/cut 0.277937 6.589117480615403 1 2 19.76735244184621
pair_coeff 10 14 wf/cut 0.198610 6.371783619045257 1 2 19.11535085713577
pair_coeff 10 15 wf/cut 0.033589 5.781664862063682 1 2 17.344994586191046
pair_coeff 10 16 wf/cut 0.186498 6.226104236834126 1 2 18.67831271050238
pair_coeff 10 17 wf/cut 0.099713 6.022605657483588 1 2 18.067816972450764
pair_coeff 10 18 wf/cut 0.042127 5.974331431598945 1 2 17.922994294796837
pair_coeff 10 19 wf/cut 0.037444 5.935671447441882 1 2 17.807014342325644
pair_coeff 10 21 wf/cut 0.016518 6.336783382464571 1 2 19.010350147393712
pair_coeff 10 22 wf/cut 0.036471 5.418375566526451 1 2 16.255126699579353
pair_coeff 10 23 wf/cut 0.011847 6.452549354094189 1 2 19.357648062282568
pair_coeff 10 24 wf/cut 0.013494 6.0532242372044625 1 2 18.15967271161339
pair_coeff 10 25 wf/cut 0.109064 6.480992623201166 1 2 19.442977869603496
pair_coeff 10 26 wf/cut 0.020094 5.727883796640076 1 2 17.18365138992023
pair_coeff 10 27 wf/cut 0.040199 5.986137211233324 1 2 17.958411633699974
pair_coeff 10 28 wf/cut 0.043227 6.162354266488605 1 2 18.487062799465814
pair_coeff 10 29 wf/cut 0.149565 6.425899535640867 1 2 19.277698606922602
pair_coeff 10 30 wf/cut 0.005164 6.279450553510229 1 2 18.838351660530687
pair_coeff 10 31 wf/cut 0.006656 6.414806714205564 1 2 19.24442014261669
pair_coeff 10 32 wf/cut 0.072705 6.20424895331838 1 2 18.61274685995514
pair_coeff 10 33 wf/cut 0.195289 6.590957221363035 1 2 19.772871664089106
pair_coeff 10 34 wf/cut 0.139925 6.374256698313246 1 2 19.12277009493974
pair_coeff 10 35 wf/cut 0.024224 5.79281450588842 1 2 17.37844351766526
pair_coeff 10 36 wf/cut 0.131391 6.228661475252712 1 2 18.685984425758136
pair_coeff 10 37 wf/cut 0.070505 6.027117316392745 1 2 18.081351949178234
pair_coeff 10 38 wf/cut 0.030282 5.983977483837185 1 2 17.951932451511553
pair_coeff 10 39 wf/cut 0.026977 5.94607610198081 1 2 17.83822830594243
pair_coeff 11 11 wf/cut 0.010998 6.53407242179841 1 2 19.60221726539523
pair_coeff 11 12 wf/cut 0.105723 6.366490684329992 1 2 19.099472052989977
pair_coeff 11 13 wf/cut 0.280647 6.755935225417062 1 2 20.267805676251186
pair_coeff 11 14 wf/cut 0.201320 6.538603519887749 1 2 19.615810559663245
pair_coeff 11 15 wf/cut 0.036299 5.946968662780402 1 2 17.840905988341206
pair_coeff 11 16 wf/cut 0.189208 6.392942886970462 1 2 19.178828660911385
pair_coeff 11 17 wf/cut 0.102423 6.189364574070181 1 2 18.56809372221054
pair_coeff 11 18 wf/cut 0.044837 6.1402119935661545 1 2 18.420635980698464
pair_coeff 11 19 wf/cut 0.040154 6.101247830628814 1 2 18.30374349188644
pair_coeff 11 20 wf/cut 0.005696 6.607723261980873 1 2 19.823169785942618
pair_coeff 11 21 wf/cut 0.019228 6.496393035701747 1 2 19.48917910710524
pair_coeff 11 22 wf/cut 0.039181 5.584501642231329 1 2 16.753504926693985
pair_coeff 11 23 wf/cut 0.014557 6.60658239133453 1 2 19.819747174003588
pair_coeff 11 24 wf/cut 0.016204 6.210508609486856 1 2 18.631525828460568
pair_coeff 11 25 wf/cut 0.111774 6.647740379710509 1 2 19.943221139131527
pair_coeff 11 26 wf/cut 0.022804 5.890170182090268 1 2 17.670510546270805
pair_coeff 11 27 wf/cut 0.042909 6.151889183567281 1 2 18.455667550701843
pair_coeff 11 28 wf/cut 0.045937 6.3282208238107795 1 2 18.984662471432337
pair_coeff 11 29 wf/cut 0.152275 6.5927216895129135 1 2 19.77816506853874
pair_coeff 11 30 wf/cut 0.007874 6.397951767513159 1 2 19.193855302539475
pair_coeff 11 31 wf/cut 0.009366 6.548412328573101 1 2 19.645236985719304
pair_coeff 11 32 wf/cut 0.075415 6.370842118401069 1 2 19.112526355203208
pair_coeff 11 33 wf/cut 0.197999 6.75777413374384 1 2 20.27332240123152
pair_coeff 11 34 wf/cut 0.142635 6.541054552668633 1 2 19.623163658005897
pair_coeff 11 35 wf/cut 0.026934 5.956563720651988 1 2 17.869691161955963
pair_coeff 11 36 wf/cut 0.134101 6.395473237725452 1 2 19.186419713176356
pair_coeff 11 37 wf/cut 0.073215 6.193703302501737 1 2 18.58110990750521
pair_coeff 11 38 wf/cut 0.032992 6.148785435376327 1 2 18.446356306128983
pair_coeff 11 39 wf/cut 0.029687 6.110345071454451 1 2 18.331035214363354
pair_coeff 11 40 wf/cut 0.005696 6.607723261980873 1 2 19.823169785942618
pair_coeff 12 12 wf/cut 0.200448 6.277850874229409 1 2 18.833552622688227
pair_coeff 12 13 wf/cut 0.375372 6.671405311072043 1 2 20.01421593321613
pair_coeff 12 14 wf/cut 0.296045 6.4532756440329795 1 2 19.35982693209894
pair_coeff 12 15 wf/cut 0.131024 5.84255485528308 1 2 17.52766456584924
pair_coeff 12 16 wf/cut 0.283933 6.307431677259977 1 2 18.92229503177993
pair_coeff 12 17 wf/cut 0.197148 6.100591694847331 1 2 18.301775084541994
pair_coeff 12 18 wf/cut 0.139562 6.040345112977554 1 2 18.12103533893266
pair_coeff 12 19 wf/cut 0.134879 5.998852825433778 1 2 17.99655847630133
pair_coeff 12 20 wf/cut 0.100421 6.367152767929573 1 2 19.101458303788718
pair_coeff 12 21 wf/cut 0.113953 6.365699666568734 1 2 19.0970989997062
pair_coeff 12 22 wf/cut 0.133906 5.487109605448974 1 2 16.46132881634692
pair_coeff 12 23 wf/cut 0.109282 6.460110665288058 1 2 19.380331995864175
pair_coeff 12 24 wf/cut 0.110929 6.07371622854753 1 2 18.22114868564259
pair_coeff 12 25 wf/cut 0.206499 6.559327404195954 1 2 19.67798221258786
pair_coeff 12 26 wf/cut 0.117529 5.770434344200525 1 2 17.311303032601575
pair_coeff 12 27 wf/cut 0.137634 6.050878049577443 1 2 18.15263414873233
pair_coeff 12 28 wf/cut 0.140662 6.22811906216779 1 2 18.68435718650337
pair_coeff 12 29 wf/cut 0.247000 6.506235094735004 1 2 19.518705284205012
pair_coeff 12 30 wf/cut 0.102599 6.199847722340906 1 2 18.59954316702272
pair_coeff 12 31 wf/cut 0.104091 6.366663725733202 1 2 19.099991177199605
pair_coeff 12 32 wf/cut 0.170140 6.278875223812024 1 2 18.836625671436074
pair_coeff 12 33 wf/cut 0.292724 6.6723319742793255 1 2 20.016995922837978
pair_coeff 12 34 wf/cut 0.237360 6.454265231889239 1 2 19.362795695667717
pair_coeff 12 35 wf/cut 0.121659 5.8431832590102974 1 2 17.529549777030894
pair_coeff 12 36 wf/cut 0.228826 6.308421039847022 1 2 18.925263119541064
pair_coeff 12 37 wf/cut 0.167940 6.10158175427316 1 2 18.30474526281948
pair_coeff 12 38 wf/cut 0.127717 6.041063379946771 1 2 18.123190139840315
pair_coeff 12 39 wf/cut 0.124412 5.999536872422517 1 2 17.998610617267552
pair_coeff 12 40 wf/cut 0.100421 6.367152767929573 1 2 19.101458303788718
pair_coeff 13 13 wf/cut 0.550297 7.066547961746265 1 2 21.199643885238793
pair_coeff 13 14 wf/cut 0.470970 6.84798437757724 1 2 20.54395313273172
pair_coeff 13 15 wf/cut 0.305948 6.234139720557474 1 2 18.702419161672424
pair_coeff 13 16 wf/cut 0.458857 6.702091518082294 1 2 20.10627455424688
pair_coeff 13 17 wf/cut 0.372073 6.494164476750084 1 2 19.48249343025025
pair_coeff 13 18 wf/cut 0.314487 6.432174788842087 1 2 19.29652436652626
pair_coeff 13 19 wf/cut 0.309804 6.390531854157171 1 2 19.171595562471513
pair_coeff 13 20 wf/cut 0.275346 6.756032732095156 1 2 20.268098196285468
pair_coeff 13 21 wf/cut 0.288877 6.755817014102551 1 2 20.267451042307652
pair_coeff 13 22 wf/cut 0.308830 5.879425000161095 1 2 17.638275000483283
pair_coeff 13 23 wf/cut 0.284207 6.8497445004881925 1 2 20.549233501464578
pair_coeff 13 24 wf/cut 0.285853 6.4638463520895115 1 2 19.391539056268535
pair_coeff 13 25 wf/cut 0.381424 6.952910842994874 1 2 20.85873252898462
pair_coeff 13 26 wf/cut 0.292454 6.1613130283141055 1 2 18.483939084942318
pair_coeff 13 27 wf/cut 0.312558 6.442631932062835 1 2 19.327895796188507
pair_coeff 13 28 wf/cut 0.315587 6.619890395721167 1 2 19.8596711871635
pair_coeff 13 29 wf/cut 0.421925 6.900441239237516 1 2 20.701323717712548
pair_coeff 13 30 wf/cut 0.277524 6.589134834507833 1 2 19.7674045035235
pair_coeff 13 31 wf/cut 0.279016 6.755970194682537 1 2 20.267910584047613
pair_coeff 13 32 wf/cut 0.345065 6.671688068448729 1 2 20.015064205346185
pair_coeff 13 33 wf/cut 0.467649 7.066966231238362 1 2 21.200898693715086
pair_coeff 13 34 wf/cut 0.412285 6.848368288265007 1 2 20.54510486479502
pair_coeff 13 35 wf/cut 0.296584 6.23425905911194 1 2 18.70277717733582
pair_coeff 13 36 wf/cut 0.403751 6.702459807412386 1 2 20.10737942223716
pair_coeff 13 37 wf/cut 0.342865 6.494438889291505 1 2 19.483316667874515
pair_coeff 13 38 wf/cut 0.302642 6.4323262444775215 1 2 19.296978733432564
pair_coeff 13 39 wf/cut 0.299337 6.3906653903753785 1 2 19.171996171126136
pair_coeff 13 40 wf/cut 0.275346 6.756032732095156 1 2 20.268098196285468
pair_coeff 14 14 wf/cut 0.391642 6.629549396410893 1 2 19.88864818923268
pair_coeff 14 15 wf/cut 0.226621 6.016400811210637 1 2 18.049202433631912
pair_coeff 14 16 wf/cut 0.379530 6.483674128071082 1 2 19.451022384213246
pair_coeff 14 17 wf/cut 0.292745 6.276026354822916 1 2 18.828079064468746
pair_coeff 14 18 wf/cut 0.235159 6.2144055979415755 1 2 18.643216793824728
pair_coeff 14 19 wf/cut 0.230476 6.172787382997035 1 2 18.518362148991105
pair_coeff 14 20 wf/cut 0.196018 6.538787910119839 1 2 19.616363730359517
pair_coeff 14 21 wf/cut 0.209550 6.538369107168012 1 2 19.615107321504034
pair_coeff 14 22 wf/cut 0.229503 5.661533193978743 1 2 16.98459958193623
pair_coeff 14 23 wf/cut 0.204879 6.632390006238709 1 2 19.89717001871613
pair_coeff 14 24 wf/cut 0.206526 6.246381672050424 1 2 18.73914501615127
pair_coeff 14 25 wf/cut 0.302096 6.734778137463742 1 2 20.204334412391226
pair_coeff 14 26 wf/cut 0.213126 5.94370434405314 1 2 17.831113032159422
pair_coeff 14 27 wf/cut 0.233231 6.2248725061501835 1 2 18.67461751845055
pair_coeff 14 28 wf/cut 0.236259 6.402145618033878 1 2 19.206436854101636
pair_coeff 14 29 wf/cut 0.342598 6.6821466956694 1 2 20.0464400870082
pair_coeff 14 30 wf/cut 0.198196 6.3718164337361864 1 2 19.11544930120856
pair_coeff 14 31 wf/cut 0.199688 6.538652708676239 1 2 19.61595812602872
pair_coeff 14 32 wf/cut 0.265737 6.453725824442914 1 2 19.361177473328745
pair_coeff 14 33 wf/cut 0.388321 6.848555261309869 1 2 20.545665783929607
pair_coeff 14 34 wf/cut 0.332957 6.630097176272377 1 2 19.89029152881713
pair_coeff 14 35 wf/cut 0.217256 6.0166118728379825 1 2 18.049835618513946
pair_coeff 14 36 wf/cut 0.324423 6.484210545760694 1 2 19.45263163728208
pair_coeff 14 37 wf/cut 0.263537 6.276464594313065 1 2 18.829393782939196
pair_coeff 14 38 wf/cut 0.223314 6.2146578822218475 1 2 18.643973646665543
pair_coeff 14 39 wf/cut 0.220009 6.173021960210248 1 2 18.51906588063074
pair_coeff 14 40 wf/cut 0.196018 6.538787910119839 1 2 19.616363730359517
pair_coeff 15 15 wf/cut 0.061600 5.412669704115792 1 2 16.238009112347374
pair_coeff 15 16 wf/cut 0.214509 5.870633388669294 1 2 17.61190016600788
pair_coeff 15 17 wf/cut 0.127724 5.665328065098679 1 2 16.99598419529604
pair_coeff 15 18 wf/cut 0.070138 5.60931576883087 1 2 16.82794730649261
pair_coeff 15 19 wf/cut 0.065455 5.568478936337624 1 2 16.705436809012873
pair_coeff 15 20 wf/cut 0.030997 5.95253426830798 1 2 17.857602804923943
pair_coeff 15 21 wf/cut 0.044529 5.941730116730399 1 2 17.8251903501912
pair_coeff 15 22 wf/cut 0.064482 5.055066526249052 1 2 15.165199578747156
pair_coeff 15 23 wf/cut 0.039858 6.0388189375203165 1 2 18.116456812560948
pair_coeff 15 24 wf/cut 0.041505 5.650569731939204 1 2 16.951709195817614
pair_coeff 15 25 wf/cut 0.137075 6.123955851741878 1 2 18.371867555225634
pair_coeff 15 26 wf/cut 0.048105 5.343933138992498 1 2 16.031799416977496
pair_coeff 15 27 wf/cut 0.068210 5.620115241697351 1 2 16.860345725092053
pair_coeff 15 28 wf/cut 0.071238 5.79714638380999 1 2 17.39143915142997
pair_coeff 15 29 wf/cut 0.177576 6.069943102760143 1 2 18.20982930828043
pair_coeff 15 30 wf/cut 0.033175 5.7826589372196375 1 2 17.347976811658913
pair_coeff 15 31 wf/cut 0.034667 5.948302390882524 1 2 17.84490717264757
pair_coeff 15 32 wf/cut 0.100716 5.845003436795657 1 2 17.53501031038697
pair_coeff 15 33 wf/cut 0.223300 6.235536027214636 1 2 18.706608081643907
pair_coeff 15 34 wf/cut 0.167936 6.018117533790267 1 2 18.054352601370802
pair_coeff 15 35 wf/cut 0.052235 5.415473890209146 1 2 16.246421670627438
pair_coeff 15 36 wf/cut 0.159402 5.872398100194439 1 2 17.617194300583318
pair_coeff 15 37 wf/cut 0.098516 5.667732143982081 1 2 17.003196431946243
pair_coeff 15 38 wf/cut 0.058293 5.612162941341123 1 2 16.83648882402337
pair_coeff 15 39 wf/cut 0.054988 5.571364187563539 1 2 16.714092562690617
pair_coeff 15 40 wf/cut 0.030997 5.95253426830798 1 2 17.857602804923943
pair_coeff 16 16 wf/cut 0.027216 6.337782403912046 1 2 19.01334721173614
pair_coeff 16 17 wf/cut 0.280633 6.130180422228775 1 2 18.390541266686323
pair_coeff 16 18 wf/cut 0.223047 6.068649252074198 1 2 18.205947756222592
pair_coeff 16 19 wf/cut 0.218364 6.027019005823624 1 2 18.081057017470872
pair_coeff 16 20 wf/cut 0.183906 6.393147480752069 1 2 19.179442442256207
pair_coeff 16 21 wf/cut 0.197438 6.392683938124808 1 2 19.178051814374424
pair_coeff 16 22 wf/cut 0.217391 5.515750877499212 1 2 16.547252632497635
pair_coeff 16 23 wf/cut 0.192767 6.486724075272986 1 2 19.46017222581896
pair_coeff 16 24 wf/cut 0.194414 6.100672500483568 1 2 18.302017501450702
pair_coeff 16 25 wf/cut 0.289984 6.588935233441612 1 2 19.766805700324838
pair_coeff 16 26 wf/cut 0.201014 5.79796325726322 1 2 17.39388977178966
pair_coeff 16 27 wf/cut 0.221118 6.0791010484529915 1 2 18.237303145358975
pair_coeff 16 28 wf/cut 0.224147 6.256376087421608 1 2 18.769128262264825
pair_coeff 16 29 wf/cut 0.330485 6.536274979404401 1 2 19.608824938213203
pair_coeff 16 30 wf/cut 0.186084 6.226140636452508 1 2 18.678421909357525
pair_coeff 16 31 wf/cut 0.187576 6.392997387325535 1 2 19.178992161976602
pair_coeff 16 32 wf/cut 0.253625 6.307912958718467 1 2 18.9237388761554
pair_coeff 16 33 wf/cut 0.376209 6.702684222295407 1 2 20.10805266688622
pair_coeff 16 34 wf/cut 0.320845 6.484248553549719 1 2 19.452745660649157
pair_coeff 16 35 wf/cut 0.205144 5.870864049052838 1 2 17.612592147158516
pair_coeff 16 36 wf/cut 0.023134 6.338345846056568 1 2 19.015037538169704
pair_coeff 16 37 wf/cut 0.251425 6.130649043241044 1 2 18.391947129723132
pair_coeff 16 38 wf/cut 0.211202 6.0689241564117395 1 2 18.20677246923522
pair_coeff 16 39 wf/cut 0.207897 6.027275074473145 1 2 18.081825223419436
pair_coeff 16 40 wf/cut 0.183906 6.393147480752069 1 2 19.179442442256207
pair_coeff 17 17 wf/cut 0.193849 5.9233491242788805 1 2 17.770047372836643
pair_coeff 17 18 wf/cut 0.136263 5.8630821184928195 1 2 17.58924635547846
pair_coeff 17 19 wf/cut 0.131580 5.821644218417775 1 2 17.464932655253325
pair_coeff 17 20 wf/cut 0.097122 6.1899864646586105 1 2 18.569959393975832
pair_coeff 17 21 wf/cut 0.110653 6.188546099325202 1 2 18.565638297975607
pair_coeff 17 22 wf/cut 0.130606 5.30983190747035 1 2 15.929495722411051
pair_coeff 17 23 wf/cut 0.105983 6.282921319282791 1 2 18.848763957848373
pair_coeff 17 24 wf/cut 0.107629 5.896489952968157 1 2 17.68946985890447
pair_coeff 17 25 wf/cut 0.203200 6.382089400238762 1 2 19.146268200716285
pair_coeff 17 26 wf/cut 0.114230 5.59320394576633 1 2 16.77961183729899
pair_coeff 17 27 wf/cut 0.134334 5.873649240456693 1 2 17.62094772137008
pair_coeff 17 28 wf/cut 0.137363 6.050910374214647 1 2 18.152731122643942
pair_coeff 17 29 wf/cut 0.243701 6.328963417719822 1 2 18.986890253159466
pair_coeff 17 30 wf/cut 0.099300 6.022666584916778 1 2 18.067999754750335
pair_coeff 17 31 wf/cut 0.100792 6.189544117007458 1 2 18.568632351022373
pair_coeff 17 32 wf/cut 0.166841 6.101625831837799 1 2 18.304877495513395
pair_coeff 17 33 wf/cut 0.289424 6.495083547619462 1 2 19.485250642858386
pair_coeff 17 34 wf/cut 0.234061 6.277022750655092 1 2 18.831068251965277
pair_coeff 17 35 wf/cut 0.118359 5.665971807159278 1 2 16.997915421477835
pair_coeff 17 36 wf/cut 0.225527 6.131165252735328 1 2 18.393495758205983
pair_coeff 17 37 wf/cut 0.164641 5.924348407080925 1 2 17.773045221242775
pair_coeff 17 38 wf/cut 0.124417 5.863848431499796 1 2 17.591545294499387
pair_coeff 17 39 wf/cut 0.121113 5.822344488616284 1 2 17.46703346584885
pair_coeff 17 40 wf/cut 0.097122 6.1899864646586105 1 2 18.569959393975832
pair_coeff 18 18 wf/cut 0.078677 5.806155150598376 1 2 17.41846545179513
pair_coeff 18 19 wf/cut 0.073994 5.765149033334852 1 2 17.29544710000456
pair_coeff 18 20 wf/cut 0.039536 6.143860896897243 1 2 18.431582690691727
pair_coeff 18 21 wf/cut 0.053067 6.136530836242518 1 2 18.409592508727556
pair_coeff 18 22 wf/cut 0.073020 5.2521394224496145 1 2 15.756418267348844
pair_coeff 18 23 wf/cut 0.048396 6.232722071931244 1 2 18.698166215793734
pair_coeff 18 24 wf/cut 0.050043 5.845049472828402 1 2 17.535148418485207
pair_coeff 18 25 wf/cut 0.145613 6.3217567788528175 1 2 18.965270336558454
pair_coeff 18 26 wf/cut 0.056644 5.539473279208256 1 2 16.618419837624767
pair_coeff 18 27 wf/cut 0.076748 5.816985496228361 1 2 17.450956488685083
pair_coeff 18 28 wf/cut 0.079776 5.993977654615634 1 2 17.9819329638469
pair_coeff 18 29 wf/cut 0.186115 6.267859616819192 1 2 18.803578850457576
pair_coeff 18 30 wf/cut 0.041714 5.974983307333975 1 2 17.924949922001925
pair_coeff 18 31 wf/cut 0.043205 6.1411099770057245 1 2 18.42332993101717
pair_coeff 18 32 wf/cut 0.109254 6.042493928204347 1 2 18.12748178461304
pair_coeff 18 33 wf/cut 0.231838 6.433519247230287 1 2 19.300557741690863
pair_coeff 18 34 wf/cut 0.176474 6.216033392034327 1 2 18.648100176102982
pair_coeff 18 35 wf/cut 0.060773 5.611389850569513 1 2 16.834169551708538
pair_coeff 18 36 wf/cut 0.167940 6.070294170144763 1 2 18.21088251043429
pair_coeff 18 37 wf/cut 0.107055 5.865217375098184 1 2 17.595652125294553
pair_coeff 18 38 wf/cut 0.066831 5.808437279092397 1 2 17.425311837277192
pair_coeff 18 39 wf/cut 0.063527 5.767428643819603 1 2 17.302285931458808
pair_coeff 18 40 wf/cut 0.039536 6.143860896897243 1 2 18.431582690691727
pair_coeff 19 19 wf/cut 0.069311 5.724362787504792 1 2 17.173088362514378
pair_coeff 19 20 wf/cut 0.034853 6.10586575299424 1 2 18.31759725898272
pair_coeff 19 21 wf/cut 0.048384 6.0967512192398505 1 2 18.290253657719553
pair_coeff 19 22 wf/cut 0.068337 5.211108138159037 1 2 15.633324414477112
pair_coeff 19 23 wf/cut 0.043714 6.1934329156331 1 2 18.5802987468993
pair_coeff 19 24 wf/cut 0.045360 5.805442925019495 1 2 17.416328775058485
pair_coeff 19 25 wf/cut 0.140930 6.280274061428144 1 2 18.84082218428443
pair_coeff 19 26 wf/cut 0.051961 5.499319146540279 1 2 16.497957439620837
pair_coeff 19 27 wf/cut 0.072065 5.776024303801226 1 2 17.328072911403677
pair_coeff 19 28 wf/cut 0.075093 5.953096206763187 1 2 17.85928862028956
pair_coeff 19 29 wf/cut 0.181432 6.226290621468162 1 2 18.678871864404485
pair_coeff 19 30 wf/cut 0.037031 5.936496588820257 1 2 17.80948976646077
pair_coeff 19 31 wf/cut 0.038522 6.10236911417194 1 2 18.30710734251582
pair_coeff 19 32 wf/cut 0.104571 6.001202451726246 1 2 18.003607355178737
pair_coeff 19 33 wf/cut 0.227155 6.391918936768799 1 2 19.175756810306396
pair_coeff 19 34 wf/cut 0.171791 6.174477574070478 1 2 18.52343272221143
pair_coeff 19 35 wf/cut 0.056090 5.571011278043507 1 2 16.71303383413052
pair_coeff 19 36 wf/cut 0.163258 6.028753613252821 1 2 18.086260839758463
pair_coeff 19 37 wf/cut 0.102372 5.823949131867462 1 2 17.471847395602385
pair_coeff 19 38 wf/cut 0.062148 5.767856883865312 1 2 17.303570651595933
pair_coeff 19 39 wf/cut 0.058844 5.726983480603789 1 2 17.18095044181137
pair_coeff 19 40 wf/cut 0.034853 6.10586575299424 1 2 18.31759725898272
pair_coeff 20 21 wf/cut 0.013926 6.5199210046589675 1 2 19.5597630139769
pair_coeff 20 22 wf/cut 0.033879 5.587459907599181 1 2 16.76237972279754
pair_coeff 20 23 wf/cut 0.009256 6.649574443493311 1 2 19.948723330479933
pair_coeff 20 24 wf/cut 0.010902 6.242374503621665 1 2 18.727123510864995
pair_coeff 20 25 wf/cut 0.106472 6.648355967009086 1 2 19.945067901027258
pair_coeff 20 26 wf/cut 0.017503 5.903567074401621 1 2 17.71070122320486
pair_coeff 20 27 wf/cut 0.037607 6.155943831058615 1 2 18.467831493175847
pair_coeff 20 28 wf/cut 0.040635 6.331503643570952 1 2 18.994510930712856
pair_coeff 20 29 wf/cut 0.146974 6.593018960515583 1 2 19.77905688154675
pair_coeff 20 32 wf/cut 0.070113 6.372029116976672 1 2 19.116087350930016
pair_coeff 20 33 wf/cut 0.192697 6.757970683221281 1 2 20.273912049663842
pair_coeff 20 34 wf/cut 0.137333 6.5414250271565235 1 2 19.62427508146957
pair_coeff 20 35 wf/cut 0.021632 5.967018638311549 1 2 17.901055914934645
pair_coeff 20 36 wf/cut 0.128800 6.395882535691026 1 2 19.187647607073078
pair_coeff 20 37 wf/cut 0.067914 6.194931490620908 1 2 18.584794471862722
pair_coeff 20 38 wf/cut 0.027690 6.155796177211015 1 2 18.467388531633045
pair_coeff 20 39 wf/cut 0.024386 6.119051758363574 1 2 18.357155275090722
pair_coeff 21 21 wf/cut 0.027458 6.480069420606985 1 2 19.440208261820956
pair_coeff 21 22 wf/cut 0.047411 5.581642130693901 1 2 16.7449263920817
pair_coeff 21 23 wf/cut 0.022787 6.583002517343036 1 2 19.74900755202911
pair_coeff 21 24 wf/cut 0.024433 6.191552500203247 1 2 18.574657500609742
pair_coeff 21 25 wf/cut 0.120004 6.646999738911693 1 2 19.94099921673508
pair_coeff 21 26 wf/cut 0.031034 5.878598106878971 1 2 17.63579432063691
pair_coeff 21 27 wf/cut 0.051138 6.1478586796466335 1 2 18.443576038939902
pair_coeff 21 28 wf/cut 0.054167 6.324516380690015 1 2 18.973549142070045
pair_coeff 21 29 wf/cut 0.160505 6.592313711480712 1 2 19.776941134442136
pair_coeff 21 30 wf/cut 0.016104 6.340969704607503 1 2 19.02290911382251
pair_coeff 21 31 wf/cut 0.017596 6.5013402123206046 1 2 19.504020636961812
pair_coeff 21 32 wf/cut 0.083645 6.369348945541728 1 2 19.108046836625185
pair_coeff 21 33 wf/cut 0.206229 6.757540572332879 1 2 20.27262171699864
pair_coeff 21 34 wf/cut 0.150865 6.540596793679068 1 2 19.621790381037204
pair_coeff 21 35 wf/cut 0.035164 5.947844531230358 1 2 17.843533593691074
pair_coeff 21 36 wf/cut 0.142331 6.39500222582037 1 2 19.18500667746111
pair_coeff 21 37 wf/cut 0.081445 6.192166186380409 1 2 18.57649855914123
pair_coeff 21 38 wf/cut 0.041222 6.142414836822247 1 2 18.42724451046674
pair_coeff 21 39 wf/cut 0.037917 6.102763659737872 1 2 18.308290979213616
pair_coeff 21 40 wf/cut 0.013926 6.5199210046589675 1 2 19.5597630139769
pair_coeff 22 22 wf/cut 0.067364 4.698227190160832 1 2 14.094681570482496
pair_coeff 22 23 wf/cut 0.042740 5.6772849911904 1 2 17.0318549735712
pair_coeff 22 24 wf/cut 0.044387 5.289807269665101 1 2 15.869421808995302
pair_coeff 22 25 wf/cut 0.139957 5.768554114508845 1 2 17.305662343526535
pair_coeff 22 26 wf/cut 0.050987 4.984686027270456 1 2 14.954058081811368
pair_coeff 22 27 wf/cut 0.071091 5.262912382415455 1 2 15.788737147246366
pair_coeff 22 28 wf/cut 0.074120 5.439975772862831 1 2 16.319927318588494
pair_coeff 22 29 wf/cut 0.180458 5.714850862757114 1 2 17.144552588271342
pair_coeff 22 30 wf/cut 0.036057 5.418902704026212 1 2 16.256708112078634
pair_coeff 22 31 wf/cut 0.037549 5.585489758070483 1 2 16.756469274211447
pair_coeff 22 32 wf/cut 0.103598 5.489037080971375 1 2 16.467111242914125
pair_coeff 22 33 wf/cut 0.226182 5.8806376350894025 1 2 17.641912905268207
pair_coeff 22 34 wf/cut 0.170818 5.662987686021554 1 2 16.988963058064662
pair_coeff 22 35 wf/cut 0.055117 5.056931123036382 1 2 15.170793369109145
pair_coeff 22 36 wf/cut 0.162284 5.517215784587296 1 2 16.551647353761886
pair_coeff 22 37 wf/cut 0.101398 5.311696859115723 1 2 15.935090577347168
pair_coeff 22 38 wf/cut 0.061175 5.254183030641423 1 2 15.762549091924269
pair_coeff 22 39 wf/cut 0.057870 5.213062357159386 1 2 15.639187071478158
pair_coeff 22 40 wf/cut 0.033879 5.587459907599181 1 2 16.76237972279754
pair_coeff 23 23 wf/cut 0.013420 6.688853536606121 1 2 20.066560609818364
pair_coeff 23 24 wf/cut 0.019763 6.29527868599085 1 2 18.885836057972547
pair_coeff 23 25 wf/cut 0.085206 6.741392723436803 1 2 20.22417817031041
pair_coeff 23 26 wf/cut 0.026364 5.978305270632397 1 2 17.93491581189719
pair_coeff 23 27 wf/cut 0.000342 6.244253298502354 1 2 18.732759895507062
pair_coeff 23 28 wf/cut 0.000366 6.4204818546224995 1 2 19.261445563867497
pair_coeff 23 29 wf/cut 0.071890 6.686432938070228 1 2 20.059298814210685
pair_coeff 23 30 wf/cut 0.011434 6.460111302128625 1 2 19.380333906385875
pair_coeff 23 31 wf/cut 0.012925 6.617996254538358 1 2 19.853988763615074
pair_coeff 23 32 wf/cut 0.078974 6.4641118645001 1 2 19.3923355935003
pair_coeff 23 33 wf/cut 0.073358 6.85155566549562 1 2 20.55466699648686
pair_coeff 23 34 wf/cut 0.080693 6.634779187210656 1 2 19.90433756163197
pair_coeff 23 35 wf/cut 0.030493 6.046847416569171 1 2 18.14054224970751
pair_coeff 23 36 wf/cut 0.061166 6.489185414364156 1 2 19.467556243092467
pair_coeff 23 37 wf/cut 0.076775 6.2869559403051 1 2 18.860867820915303
pair_coeff 23 38 wf/cut 0.036551 6.240136548485556 1 2 18.72040964545667
pair_coeff 23 39 wf/cut 0.033247 6.2011686854634664 1 2 18.6035060563904
pair_coeff 23 40 wf/cut 0.009256 6.649574443493311 1 2 19.948723330479933
pair_coeff 24 24 wf/cut 0.021409 5.902825373061459 1 2 17.708476119184375
pair_coeff 24 25 wf/cut 0.116980 6.355020618222843 1 2 19.065061854668528
pair_coeff 24 26 wf/cut 0.028010 5.588184701124206 1 2 16.764554103372618
pair_coeff 24 27 wf/cut 0.048114 5.856453272809193 1 2 17.56935981842758
pair_coeff 24 28 wf/cut 0.051143 6.03282984385001 1 2 18.09848953155003
pair_coeff 24 29 wf/cut 0.157481 6.300272873273843 1 2 18.90081861982153
pair_coeff 24 30 wf/cut 0.013080 6.05885560137348 1 2 18.17656680412044
pair_coeff 24 31 wf/cut 0.014572 6.219293562690735 1 2 18.657880688072204
pair_coeff 24 32 wf/cut 0.080621 6.077365593674358 1 2 18.232096781023074
pair_coeff 24 33 wf/cut 0.203205 6.465539023765016 1 2 19.396617071295047
pair_coeff 24 34 wf/cut 0.147841 6.248599086448351 1 2 18.745797259345053
pair_coeff 24 35 wf/cut 0.032140 5.6574738585901345 1 2 16.972421575770404
pair_coeff 24 36 wf/cut 0.139307 6.102951668547555 1 2 18.308855005642666
pair_coeff 24 37 wf/cut 0.078421 5.900160965208208 1 2 17.700482895624624
pair_coeff 24 38 wf/cut 0.038198 5.85153222065546 1 2 17.55459666196638
pair_coeff 24 39 wf/cut 0.034893 5.812153931855011 1 2 17.436461795565034
pair_coeff 24 40 wf/cut 0.010902 6.242374503621665 1 2 18.727123510864995
pair_coeff 25 25 wf/cut 0.062978 6.840818860381698 1 2 20.522456581145093
pair_coeff 25 26 wf/cut 0.123581 6.051811079871612 1 2 18.155433239614837
pair_coeff 25 27 wf/cut 0.001064 6.332285213812248 1 2 18.996855641436742
pair_coeff 25 28 wf/cut 0.001085 6.509542326637676 1 2 19.528626979913028
pair_coeff 25 29 wf/cut 0.425474 6.7877218996841355 1 2 20.363165699052406
pair_coeff 25 30 wf/cut 0.108651 6.481102402445426 1 2 19.44330720733628
pair_coeff 25 31 wf/cut 0.110142 6.647901648052044 1 2 19.94370494415613
pair_coeff 25 32 wf/cut 0.176191 6.560327886240045 1 2 19.680983658720134
pair_coeff 25 33 wf/cut 0.484160 6.953839371357665 1 2 20.861518114072993
pair_coeff 25 34 wf/cut 0.381459 6.735769622233203 1 2 20.20730886669961
pair_coeff 25 35 wf/cut 0.127710 6.1245540687340725 1 2 18.37366220620222
pair_coeff 25 36 wf/cut 0.086889 6.589926019306955 1 2 19.769778057920867
pair_coeff 25 37 wf/cut 0.173991 6.38305646617526 1 2 19.14916939852578
pair_coeff 25 38 wf/cut 0.133768 6.322442926130092 1 2 18.967328778390275
pair_coeff 25 39 wf/cut 0.130463 6.280926022691235 1 2 18.842778068073706
pair_coeff 25 40 wf/cut 0.106472 6.648355967009086 1 2 19.945067901027258
pair_coeff 26 26 wf/cut 0.034611 5.278051554722805 1 2 15.834154664168416
pair_coeff 26 27 wf/cut 0.054715 5.550632394717641 1 2 16.651897184152922
pair_coeff 26 28 wf/cut 0.057743 5.727313013729271 1 2 17.18193904118781
pair_coeff 26 29 wf/cut 0.164082 5.997401234701861 1 2 17.99220370410558
pair_coeff 26 30 wf/cut 0.019681 5.729200436106479 1 2 17.187601308319437
pair_coeff 26 31 wf/cut 0.021172 5.893502125092778 1 2 17.680506375278334
pair_coeff 26 32 wf/cut 0.087222 5.77355467816977 1 2 17.32066403450931
pair_coeff 26 33 wf/cut 0.209805 6.162846524069043 1 2 18.48853957220713
pair_coeff 26 34 wf/cut 0.154442 5.945670315140756 1 2 17.837010945422268
pair_coeff 26 35 wf/cut 0.038740 5.3486854588231765 1 2 16.04605637646953
pair_coeff 26 36 wf/cut 0.145908 5.799973083941243 1 2 17.39991925182373
pair_coeff 26 37 wf/cut 0.085022 5.596251927245512 1 2 16.788755781736537
pair_coeff 26 38 wf/cut 0.044798 5.544164768287125 1 2 16.632494304861375
pair_coeff 26 39 wf/cut 0.041494 5.504054682438701 1 2 16.512164047316105
pair_coeff 26 40 wf/cut 0.017503 5.903567074401621 1 2 17.71070122320486
pair_coeff 27 27 wf/cut 0.055422 5.8277356350076115 1 2 17.483206905022833
pair_coeff 27 28 wf/cut 0.057461 6.0048083393750415 1 2 18.014425018125124
pair_coeff 27 29 wf/cut 0.184186 6.278368151196274 1 2 18.83510445358882
pair_coeff 27 30 wf/cut 0.039785 5.986861716352022 1 2 17.960585149056065
pair_coeff 27 31 wf/cut 0.041277 6.152881477214971 1 2 18.458644431644913
pair_coeff 27 32 wf/cut 0.107326 6.053140955180234 1 2 18.159422865540705
pair_coeff 27 33 wf/cut 0.229910 6.444000765960297 1 2 19.33200229788089
pair_coeff 27 34 wf/cut 0.174546 6.226529663564308 1 2 18.679588990692924
pair_coeff 27 35 wf/cut 0.058845 5.622457081906772 1 2 16.867371245720314
pair_coeff 27 36 wf/cut 0.001228 6.080799532766481 1 2 18.242398598299445
pair_coeff 27 37 wf/cut 0.105126 5.875867449320084 1 2 17.627602347960252
pair_coeff 27 38 wf/cut 0.064903 5.819413545043322 1 2 17.458240635129968
pair_coeff 27 39 wf/cut 0.061598 5.778457730344957 1 2 17.335373191034872
pair_coeff 27 40 wf/cut 0.037607 6.155943831058615 1 2 18.467831493175847
pair_coeff 28 28 wf/cut 0.059908 6.1818125994432265 1 2 18.54543779832968
pair_coeff 28 29 wf/cut 0.187215 6.4556028384801145 1 2 19.366808515440344
pair_coeff 28 30 wf/cut 0.042814 6.162677260323304 1 2 18.488031780969912
pair_coeff 28 31 wf/cut 0.044305 6.329122536684595 1 2 18.987367610053788
pair_coeff 28 32 wf/cut 0.110354 6.230341958421634 1 2 18.691025875264902
pair_coeff 28 33 wf/cut 0.232938 6.621259842822526 1 2 19.863779528467578
pair_coeff 28 34 wf/cut 0.177574 6.403800703379438 1 2 19.211402110138312
pair_coeff 28 35 wf/cut 0.061873 5.7993639894571976 1 2 17.39809196837159
pair_coeff 28 36 wf/cut 0.001252 6.258048801889918 1 2 18.774146405669754
pair_coeff 28 37 wf/cut 0.108154 6.053088642675554 1 2 18.159265928026663
pair_coeff 28 38 wf/cut 0.067931 5.9963870692049515 1 2 17.989161207614856
pair_coeff 28 39 wf/cut 0.064626 5.955407688864699 1 2 17.866223066594095
pair_coeff 28 40 wf/cut 0.040635 6.331503643570952 1 2 18.994510930712856
pair_coeff 29 29 wf/cut 0.293553 6.734901221669089 1 2 20.204703665007266
pair_coeff 29 30 wf/cut 0.149152 6.425928662140226 1 2 19.277785986420678
pair_coeff 29 31 wf/cut 0.150644 6.592808608254519 1 2 19.77842582476356
pair_coeff 29 32 wf/cut 0.216693 6.5069139355650485 1 2 19.520741806695145
pair_coeff 29 33 wf/cut 0.339277 6.901174934210456 1 2 20.703524802631367
pair_coeff 29 34 wf/cut 0.283913 6.682893550119813 1 2 20.048680650359437
pair_coeff 29 35 wf/cut 0.168212 6.070294170144763 1 2 18.21088251043429
pair_coeff 29 36 wf/cut 0.275379 6.53700493974828 1 2 19.61101481924484
pair_coeff 29 37 wf/cut 0.214493 6.329613164394258 1 2 18.988839493182773
pair_coeff 29 38 wf/cut 0.174270 6.268290266697097 1 2 18.80487080009129
pair_coeff 29 39 wf/cut 0.170965 6.226677571408917 1 2 18.68003271422675
pair_coeff 29 40 wf/cut 0.146974 6.593018960515583 1 2 19.77905688154675
pair_coeff 30 31 wf/cut 0.006243 6.436867325811939 1 2 19.310601977435816
pair_coeff 30 32 wf/cut 0.072292 6.2043654791136875 1 2 18.613096437341063
pair_coeff 30 33 wf/cut 0.194875 6.590992227279316 1 2 19.77297668183795
pair_coeff 30 34 wf/cut 0.139512 6.374322689731052 1 2 19.122968069193156
pair_coeff 30 35 wf/cut 0.023810 5.794680761693587 1 2 17.38404228508076
pair_coeff 30 36 wf/cut 0.130978 6.228734363673756 1 2 18.68620309102127
pair_coeff 30 37 wf/cut 0.070092 6.027237821338098 1 2 18.081713464014296
pair_coeff 30 38 wf/cut 0.029868 5.985230649978958 1 2 17.955691949936874
pair_coeff 30 39 wf/cut 0.026564 5.947631895281645 1 2 17.842895685844933
pair_coeff 31 31 wf/cut 0.007734 6.567831037515117 1 2 19.703493112545353
pair_coeff 31 32 wf/cut 0.073783 6.371180012524027 1 2 19.11354003757208
pair_coeff 31 33 wf/cut 0.196367 6.757844212311977 1 2 20.273532636935933
pair_coeff 31 34 wf/cut 0.141003 6.541152469250684 1 2 19.623457407752053
pair_coeff 31 35 wf/cut 0.025302 5.958948966149641 1 2 17.87684689844892
pair_coeff 31 36 wf/cut 0.132469 6.395617784448214 1 2 19.18685335334464
pair_coeff 31 37 wf/cut 0.071583 6.194052355515639 1 2 18.58215706654692
pair_coeff 31 38 wf/cut 0.031360 6.150442231391871 1 2 18.451326694175613
pair_coeff 31 39 wf/cut 0.028055 6.1123674095484715 1 2 18.337102228645414
pair_coeff 32 32 wf/cut 0.139832 6.280338147956703 1 2 18.841014443870108
pair_coeff 32 33 wf/cut 0.262416 6.672807379130834 1 2 20.018422137392502
pair_coeff 32 34 wf/cut 0.207052 6.454996866244807 1 2 19.364990598734423
pair_coeff 32 35 wf/cut 0.091351 5.846082838683163 1 2 17.53824851604949
pair_coeff 32 36 wf/cut 0.198518 6.309181376440496 1 2 18.92754412932149
pair_coeff 32 37 wf/cut 0.137633 6.103047888395006 1 2 18.30914366518502
pair_coeff 32 38 wf/cut 0.097409 6.043739153604026 1 2 18.131217460812078
pair_coeff 32 39 wf/cut 0.094104 6.002359484884067 1 2 18.007078454652202
pair_coeff 32 40 wf/cut 0.070113 6.372029116976672 1 2 19.116087350930016
pair_coeff 33 33 wf/cut 0.385000 7.067563273437359 1 2 21.202689820312077
pair_coeff 33 34 wf/cut 0.329636 6.849136659067028 1 2 20.547409977201085
pair_coeff 33 35 wf/cut 0.213935 6.235761878631987 1 2 18.70728563589596
pair_coeff 33 36 wf/cut 0.321102 6.703247958074066 1 2 20.109743874222197
pair_coeff 33 37 wf/cut 0.260216 6.49554680247315 1 2 19.48664040741945
pair_coeff 33 38 wf/cut 0.219993 6.433800819712532 1 2 19.3014024591376
pair_coeff 33 39 wf/cut 0.216688 6.3921696304391835 1 2 19.17650889131755
pair_coeff 33 40 wf/cut 0.192697 6.757970683221281 1 2 20.273912049663842
pair_coeff 34 34 wf/cut 0.274272 6.630885251270346 1 2 19.892655753811038
pair_coeff 34 35 wf/cut 0.158571 6.018506537122348 1 2 18.055519611367043
pair_coeff 34 36 wf/cut 0.265738 6.485029527646095 1 2 19.455088582938284
pair_coeff 34 37 wf/cut 0.204852 6.27772691468288 1 2 18.83318074404864
pair_coeff 34 38 wf/cut 0.164629 6.216488307385695 1 2 18.649464922157083
pair_coeff 34 39 wf/cut 0.161324 6.17490549231641 1 2 18.52471647694923
pair_coeff 34 40 wf/cut 0.137333 6.5414250271565235 1 2 19.62427508146957
pair_coeff 35 35 wf/cut 0.042870 5.4194558891562785 1 2 16.258367667468836
pair_coeff 35 36 wf/cut 0.150037 5.8728226163551005 1 2 17.6184678490653
pair_coeff 35 37 wf/cut 0.089151 5.6688305293155095 1 2 17.006491587946527
pair_coeff 35 38 wf/cut 0.048928 5.615420402551611 1 2 16.846261207654834
pair_coeff 35 39 wf/cut 0.045623 5.575027083025114 1 2 16.725081249075345
pair_coeff 35 40 wf/cut 0.021632 5.967018638311549 1 2 17.901055914934645
pair_coeff 36 36 wf/cut 0.019052 6.339149093005715 1 2 19.017447279017144
pair_coeff 36 37 wf/cut 0.196319 6.131909094415353 1 2 18.39572728324606
pair_coeff 36 38 wf/cut 0.156095 6.07081046198845 1 2 18.21243138596535
pair_coeff 36 39 wf/cut 0.152791 6.029219810679759 1 2 18.087659432039278
pair_coeff 36 40 wf/cut 0.128800 6.395882535691026 1 2 19.187647607073078
pair_coeff 37 37 wf/cut 0.135433 5.925773208988131 1 2 17.777319626964392
pair_coeff 37 38 wf/cut 0.095209 5.866481553533799 1 2 17.599444660601396
pair_coeff 37 39 wf/cut 0.091905 5.82512551794993 1 2 17.47537655384979
pair_coeff 37 40 wf/cut 0.067914 6.194931490620908 1 2 18.584794471862722
pair_coeff 38 38 wf/cut 0.054986 5.811826808320624 1 2 17.43548042496187
pair_coeff 38 39 wf/cut 0.051681 5.771184604473262 1 2 17.313553813419787
pair_coeff 38 40 wf/cut 0.027690 6.155796177211015 1 2 18.467388531633045
pair_coeff 39 39 wf/cut 0.048377 5.730699270006254 1 2 17.192097810018762
pair_coeff 39 40 wf/cut 0.024386 6.119051758363574 1 2 18.357155275090722
pair_coeff 40 40 wf/cut 0.000395 6.921680089176746 1 11 20.76504026753024
pair_coeff 20 40 wf/cut 0.000395 6.921680089176746 1 11 20.76504026753024
pair_coeff 20 20 wf/cut 0.000395 6.921680089176746 1 11 20.76504026753024
pair_coeff 10 20 wf/cut 0.002986 6.718011650959061 1 4 20.154034952877183
pair_coeff 10 40 wf/cut 0.002986 6.718011650959061 1 4 20.154034952877183
pair_coeff 20 30 wf/cut 0.002573 6.745752996427961 1 4 20.237258989283884
pair_coeff 20 31 wf/cut 0.004064 6.883184689300606 1 4 20.649554067901818
pair_coeff 30 40 wf/cut 0.002573 6.745752996427961 1 4 20.237258989283884
pair_coeff 31 40 wf/cut 0.004064 6.883184689300606 1 4 20.649554067901818
pair_coeff 3 3 coul/debye 35.
pair_coeff 3 5 coul/debye 35.
pair_coeff 3 7 coul/debye 35.
pair_coeff 3 8 coul/debye 35.
pair_coeff 3 16 coul/debye 35.
pair_coeff 3 23 coul/debye 35.
pair_coeff 3 25 coul/debye 35.
pair_coeff 3 36 coul/debye 35.
pair_coeff 5 5 coul/debye 35.
pair_coeff 5 7 coul/debye 35.
pair_coeff 5 8 coul/debye 35.
pair_coeff 5 16 coul/debye 35.
pair_coeff 5 23 coul/debye 35.
pair_coeff 5 25 coul/debye 35.
pair_coeff 5 27 coul/debye 35.
pair_coeff 5 28 coul/debye 35.
pair_coeff 5 36 coul/debye 35.
pair_coeff 7 7 coul/debye 35.
pair_coeff 7 8 coul/debye 35.
pair_coeff 7 16 coul/debye 35.
pair_coeff 7 23 coul/debye 35.
pair_coeff 7 25 coul/debye 35.
pair_coeff 7 27 coul/debye 35.
pair_coeff 7 28 coul/debye 35.
pair_coeff 7 36 coul/debye 35.
pair_coeff 8 8 coul/debye 35.
pair_coeff 8 16 coul/debye 35.
pair_coeff 8 23 coul/debye 35.
pair_coeff 8 25 coul/debye 35.
pair_coeff 8 27 coul/debye 35.
pair_coeff 8 28 coul/debye 35.
pair_coeff 8 36 coul/debye 35.
pair_coeff 16 16 coul/debye 35.
pair_coeff 16 23 coul/debye 35.
pair_coeff 16 25 coul/debye 35.
pair_coeff 16 27 coul/debye 35.
pair_coeff 16 28 coul/debye 35.
pair_coeff 16 36 coul/debye 35.
pair_coeff 23 23 coul/debye 35.
pair_coeff 23 25 coul/debye 35.
pair_coeff 23 36 coul/debye 35.
pair_coeff 25 25 coul/debye 35.
pair_coeff 25 27 coul/debye 35.
pair_coeff 25 28 coul/debye 35.
pair_coeff 25 36 coul/debye 35.
pair_coeff 27 27 coul/debye 35.
pair_coeff 27 28 coul/debye 35.
pair_coeff 27 36 coul/debye 35.
pair_coeff 28 28 coul/debye 35.
pair_coeff 28 36 coul/debye 35.
pair_coeff 36 36 coul/debye 35.
pair_coeff 3 27 coul/debye 35.
pair_coeff 3 28 coul/debye 35.
pair_coeff 23 27 coul/debye 35.
pair_coeff 23 28 coul/debye 35.

special_bonds fene
Finding 1-2 1-3 1-4 neighbors ...
  special bond factors lj:    0        1        1       
  special bond factors coul:  0        1        1       
     2 = max # of 1-2 neighbors
     6 = max # of special neighbors
  special bonds CPU = 0.000 seconds
neighbor  3.5 multi
neigh_modify  every 10 delay 0

comm_style    tiled

timer timeout 35:50:00
New timer settings: style=normal  mode=nosync  timeout=11:50:00

velocity      all create $T 494211
velocity      all create 345 494211
fix           fxnve   all nve
fix           fxlange all langevin $T $T 40000.0 32784
fix           fxlange all langevin 345 $T 40000.0 32784
fix           fxlange all langevin 345 345 40000.0 32784

dump          1 all custom 100000 $d-$T.xyz id mol type q xu yu zu
dump          1 all custom 100000 TIA_WT-$T.xyz id mol type q xu yu zu
dump          1 all custom 100000 TIA_WT-345.xyz id mol type q xu yu zu
dump_modify   1 sort id

#compute       rad all gyration
#compute       dis all pair/local dist
#compute       maximo all reduce max c_dis
#compute       mean all reduce ave c_dis

thermo        1000000
thermo_style  custom step pe temp  press ke lx ly lz pzz  spcpu density
thermo_modify flush yes

restart      10000000 restart$T
restart      10000000 restart345

####Minimization

timestep 0.01
run 2000

CITE-CITE-CITE-CITE-CITE-CITE-CITE-CITE-CITE-CITE-CITE-CITE-CITE

Your simulation uses code contributions which should be cited:

- neighbor multi command:

@Article{Intveld08,
 author =  {P.{\,}J.~in{\,}'t~Veld and S.{\,}J.~Plimpton and G.{\,}S.~Grest},
 title =   {Accurate and Efficient Methods for Modeling Colloidal
            Mixtures in an Explicit Solvent using Molecular Dynamics},
 journal = {Comp.~Phys.~Comm.},
 year =    2008,
 volume =  179,
 pages =   {320--329}
}

CITE-CITE-CITE-CITE-CITE-CITE-CITE-CITE-CITE-CITE-CITE-CITE-CITE

Neighbor list info ...
  update every 10 steps, delay 0 steps, check yes
  max neighbors/atom: 2000, page size: 100000
  master list distance cutoff = 38.5
  ghost atom cutoff = 38.5
  binsize = 8.7926654, bins = 35 35 35
  2 neighbor lists, perpetual/occasional/extra = 2 0 0
  (1) pair wf/cut, perpetual
      attributes: half, newton on
      pair build: half/multi/newton
      stencil: half/multi/3d/newton
      bin: standard
  (2) pair coul/debye, perpetual, skip from (1)
      attributes: half, newton on
      pair build: skip
      stencil: none
      bin: none
Per MPI rank memory allocation (min/avg/max) = 8.891 | 8.953 | 9.133 Mbytes
Step PotEng Temp Press KinEng Lx Ly Lz Pzz S/CPU Density 
       0   -13.356653          345   0.42571431    98.724429          300          300          300   0.30581918            0 0.00066940445 
    2000   -11.319789    337.98805   0.40638073    96.717904          300          300          300   0.30459298    41597.366 0.00066940445 
Loop time of 0.048112 on 6 procs for 2000 steps with 97 atoms

Performance: 35.916 ns/day, 0.668 hours/ns, 41569.709 timesteps/s
99.8% CPU use with 6 MPI tasks x no OpenMP threads

MPI task timing breakdown:
Section |  min time  |  avg time  |  max time  |%varavg| %total
---------------------------------------------------------------
Pair    | 0.00054431 | 0.0033648  | 0.016967   |  10.5 |  6.99
Bond    | 5.5075e-05 | 0.00044    | 0.0021777  |   0.0 |  0.91
Neigh   | 0          | 0          | 0          |   0.0 |  0.00
Comm    | 0.01745    | 0.039096   | 0.044145   |   4.9 | 81.26
Output  | 2.0027e-05 | 2.9484e-05 | 5.1022e-05 |   0.0 |  0.06
Modify  | 0.00025272 | 0.0020608  | 0.010427   |   8.2 |  4.28
Other   |            | 0.003121   |            |       |  6.49

Nlocal:        16.1667 ave          96 max           0 min
Histogram: 5 0 0 0 0 0 0 0 0 1
Nghost:        39.5000 ave          57 max           0 min
Histogram: 1 0 0 0 1 0 0 0 1 3
Neighs:        73.5000 ave         436 max           0 min
Histogram: 5 0 0 0 0 0 0 0 0 1

Total # of neighbors = 441
Ave neighs/atom = 4.5463918
Ave special neighs/atom = 1.9793814
Neighbor list builds = 0
Dangerous builds = 0

timestep 0.1
run 2000
Per MPI rank memory allocation (min/avg/max) = 8.891 | 8.953 | 9.133 Mbytes
Step PotEng Temp Press KinEng Lx Ly Lz Pzz S/CPU Density 
    2000   -11.319789    337.98805   0.40638073    96.717904          300          300          300   0.30459298            0 0.00066940445 
    4000    4.7860864    285.03179  -0.17204451    81.564059          300          300          300  -0.11842403    41745.791 0.00066940445 
Loop time of 0.0479186 on 6 procs for 2000 steps with 97 atoms

Performance: 360.611 ns/day, 0.067 hours/ns, 41737.414 timesteps/s
99.7% CPU use with 6 MPI tasks x no OpenMP threads

MPI task timing breakdown:
Section |  min time  |  avg time  |  max time  |%varavg| %total
---------------------------------------------------------------
Pair    | 0.00058126 | 0.0033736  | 0.016967   |  10.5 |  7.04
Bond    | 7.9155e-05 | 0.00044465 | 0.0021687  |   0.0 |  0.93
Neigh   | 0          | 0          | 0          |   0.0 |  0.00
Comm    | 0.017244   | 0.038875   | 0.044018   |   4.9 | 81.13
Output  | 2.0981e-05 | 2.6941e-05 | 3.0994e-05 |   0.0 |  0.06
Modify  | 0.0002749  | 0.0020825  | 0.010466   |   8.2 |  4.35
Other   |            | 0.003116   |            |       |  6.50

Nlocal:        16.1667 ave          96 max           0 min
Histogram: 5 0 0 0 0 0 0 0 0 1
Nghost:        39.5000 ave          57 max           0 min
Histogram: 1 0 0 0 1 0 0 0 1 3
Neighs:        73.5000 ave         436 max           0 min
Histogram: 5 0 0 0 0 0 0 0 0 1

Total # of neighbors = 441
Ave neighs/atom = 4.5463918
Ave special neighs/atom = 1.9793814
Neighbor list builds = 0
Dangerous builds = 0

timestep 1
run 2000
Per MPI rank memory allocation (min/avg/max) = 8.891 | 8.953 | 9.133 Mbytes
Step PotEng Temp Press KinEng Lx Ly Lz Pzz S/CPU Density 
    4000    4.7860864    285.03179  -0.17204451    81.564059          300          300          300  -0.11842403            0 0.00066940445 
    6000    11.292386     284.1146  -0.10017446    81.301598          300          300          300  0.052817439     41521.39 0.00066940445 
Loop time of 0.0481795 on 6 procs for 2000 steps with 97 atoms

Performance: 3586.584 ns/day, 0.007 hours/ns, 41511.391 timesteps/s
99.8% CPU use with 6 MPI tasks x no OpenMP threads

MPI task timing breakdown:
Section |  min time  |  avg time  |  max time  |%varavg| %total
---------------------------------------------------------------
Pair    | 0.00059032 | 0.0033525  | 0.016698   |  10.3 |  6.96
Bond    | 6.5088e-05 | 0.00044346 | 0.0021563  |   0.0 |  0.92
Neigh   | 0.00028276 | 0.00029095 | 0.00030112 |   0.0 |  0.60
Comm    | 0.01759    | 0.038916   | 0.044036   |   4.8 | 80.77
Output  | 2.0027e-05 | 2.6067e-05 | 3.0041e-05 |   0.0 |  0.05
Modify  | 0.00024414 | 0.0020645  | 0.01036    |   8.2 |  4.29
Other   |            | 0.003086   |            |       |  6.41

Nlocal:        16.1667 ave          95 max           0 min
Histogram: 5 0 0 0 0 0 0 0 0 1
Nghost:        38.8333 ave          58 max           0 min
Histogram: 1 0 0 0 1 0 0 0 3 1
Neighs:        73.3333 ave         429 max           0 min
Histogram: 5 0 0 0 0 0 0 0 0 1

Total # of neighbors = 440
Ave neighs/atom = 4.5360825
Ave special neighs/atom = 1.9793814
Neighbor list builds = 5
Dangerous builds = 0

####Collapse the IDR

timestep 10
run 1000000
Per MPI rank memory allocation (min/avg/max) = 8.892 | 8.974 | 9.133 Mbytes
Step PotEng Temp Press KinEng Lx Ly Lz Pzz S/CPU Density 
    6000    11.292386     284.1146  -0.10017446    81.301598          300          300          300  0.052817439            0 0.00066940445 
 1000000    9.3132391    269.98831   0.11851344    77.259251          300          300          300   0.11231541    23706.753 0.00066940445 
 1006000     9.710436    357.96219  0.033549249    102.43366          300          300          300  0.078914441    19616.051 0.00066940445 
Loop time of 42.2349 on 6 procs for 1000000 steps with 97 atoms

Performance: 20457.008 ns/day, 0.001 hours/ns, 23677.092 timesteps/s
99.7% CPU use with 6 MPI tasks x no OpenMP threads

MPI task timing breakdown:
Section |  min time  |  avg time  |  max time  |%varavg| %total
---------------------------------------------------------------
Pair    | 0.44333    | 5.2595     | 10.738     | 161.1 | 12.45
Bond    | 0.053458   | 0.22245    | 0.3885     |  26.3 |  0.53
Neigh   | 2.0753     | 2.0879     | 2.1034     |   0.7 |  4.94
Comm    | 26.094     | 32.378     | 37.984     |  75.0 | 76.66
Output  | 0.0012465  | 0.0013667  | 0.0017674  |   0.5 |  0.00
Modify  | 0.21137    | 1.0317     | 1.87       |  59.4 |  2.44
Other   |            | 1.254      |            |       |  2.97

Nlocal:        16.1667 ave          97 max           0 min
Histogram: 5 0 0 0 0 0 0 0 0 1
Nghost:        5.83333 ave          35 max           0 min
Histogram: 5 0 0 0 0 0 0 0 0 1
Neighs:        362.500 ave        2175 max           0 min
Histogram: 5 0 0 0 0 0 0 0 0 1

Total # of neighbors = 2175
Ave neighs/atom = 22.422680
Ave special neighs/atom = 1.9793814
Neighbor list builds = 27411
Dangerous builds = 0

####Replicate initial system

replicate 4 4 4
Replicating atoms ...
  orthogonal box = (0.0000000 0.0000000 0.0000000) to (1200.0000 1200.0000 1200.0000)
  1 by 2 by 3 MPI processor grid
  6208 atoms
  6144 bonds
Finding 1-2 1-3 1-4 neighbors ...
  special bond factors lj:    0        1        1       
  special bond factors coul:  0        1        1       
     2 = max # of 1-2 neighbors
     6 = max # of special neighbors
  special bonds CPU = 0.000 seconds
  replicate CPU = 0.004 seconds

run 1
Per MPI rank memory allocation (min/avg/max) = 11.62 | 11.64 | 11.68 Mbytes
Step PotEng Temp Press KinEng Lx Ly Lz Pzz S/CPU Density 
 1006000     621.4679    354.32893  0.033549249    6555.7542         1200         1200         1200  0.078914441            0 0.00066940445 
 1006001    619.50115    354.36834  0.022506838    6556.4834         1200         1200         1200  0.068641963      997.931 0.00066940445 
Loop time of 0.00101121 on 6 procs for 1 steps with 6208 atoms

Performance: 854.420 ns/day, 0.028 hours/ns, 988.912 timesteps/s
86.4% CPU use with 6 MPI tasks x no OpenMP threads

MPI task timing breakdown:
Section |  min time  |  avg time  |  max time  |%varavg| %total
---------------------------------------------------------------
Pair    | 0.00043011 | 0.00057121 | 0.00083899 |   0.0 | 56.49
Bond    | 1.3828e-05 | 1.8795e-05 | 2.9087e-05 |   0.0 |  1.86
Neigh   | 0          | 0          | 0          |   0.0 |  0.00
Comm    | 1.5736e-05 | 0.00029433 | 0.00043988 |   0.0 | 29.11
Output  | 3.6955e-05 | 6.4969e-05 | 8.1062e-05 |   0.0 |  6.42
Modify  | 4.1008e-05 | 5.5472e-05 | 8.3923e-05 |   0.0 |  5.49
Other   |            | 6.437e-06  |            |       |  0.64

Nlocal:        1034.67 ave        1552 max         776 min
Histogram: 4 0 0 0 0 0 0 0 0 2
Nghost:        96.0000 ave         288 max           0 min
Histogram: 4 0 0 0 0 0 0 0 0 2
Neighs:        23200.0 ave       34800 max       17400 min
Histogram: 4 0 0 0 0 0 0 0 0 2

Total # of neighbors = 139200
Ave neighs/atom = 22.422680
Ave special neighs/atom = 1.9793814
Neighbor list builds = 0
Dangerous builds = 0

####Smaller box size

#change_box all x final 0 300 y final 0 300 z final 0 300 remap

####Loop to compress

variable myDensity equal density
label loop
variable a loop 1000
change_box all x scale 0.95 y scale 0.95 z scale 0.95 remap
Changing box ...
  orthogonal box = (30.000000 0.0000000 0.0000000) to (1170.0000 1200.0000 1200.0000)
  orthogonal box = (30.000000 30.000000 0.0000000) to (1170.0000 1170.0000 1200.0000)
  orthogonal box = (30.000000 30.000000 30.000000) to (1170.0000 1170.0000 1170.0000)
run 8000
Per MPI rank memory allocation (min/avg/max) = 11.62 | 11.64 | 11.68 Mbytes
Step PotEng Temp Press KinEng Lx Ly Lz Pzz S/CPU Density 
 1006001    2740.9341    354.36834    1.6727518    6556.4834         1140         1140         1140    1.9610898            0 0.0007807604 
 1014001    632.58684    348.16042  0.021989538    6441.6251         1140         1140         1140  0.025368542    1292.3641 0.0007807604 
Loop time of 6.19032 on 6 procs for 8000 steps with 6208 atoms

Performance: 1116.582 ns/day, 0.021 hours/ns, 1292.340 timesteps/s
99.7% CPU use with 6 MPI tasks x no OpenMP threads

MPI task timing breakdown:
Section |  min time  |  avg time  |  max time  |%varavg| %total
---------------------------------------------------------------
Pair    | 2.2659     | 3.0935     | 4.7095     |  63.2 | 49.97
Bond    | 0.067438   | 0.090762   | 0.13791    |  10.6 |  1.47
Neigh   | 0.51448    | 0.5148     | 0.51554    |   0.1 |  8.32
Comm    | 0.16065    | 1.9941     | 2.9303     |  89.5 | 32.21
Output  | 4.3154e-05 | 8.7897e-05 | 0.00018978 |   0.0 |  0.00
Modify  | 0.32933    | 0.43758    | 0.65293    |  23.0 |  7.07
Other   |            | 0.05947    |            |       |  0.96

Nlocal:        1034.67 ave        1552 max         776 min
Histogram: 4 0 0 0 0 0 0 0 0 2
Nghost:        204.667 ave         415 max           4 min
Histogram: 1 0 0 3 0 0 0 0 0 2
Neighs:        18215.2 ave       28694 max       12969 min
Histogram: 4 0 0 0 0 0 0 0 0 2

Total # of neighbors = 109291
Ave neighs/atom = 17.604865
Ave special neighs/atom = 1.9793814
Neighbor list builds = 321
Dangerous builds = 0

if "${myDensity} > 1.0" then "jump SELF break"

next a
jump SELF loop
variable a loop 1000
change_box all x scale 0.95 y scale 0.95 z scale 0.95 remap
Changing box ...
  orthogonal box = (58.500000 30.000000 30.000000) to (1141.5000 1170.0000 1170.0000)
  orthogonal box = (58.500000 58.500000 30.000000) to (1141.5000 1141.5000 1170.0000)
  orthogonal box = (58.500000 58.500000 58.500000) to (1141.5000 1141.5000 1141.5000)
run 8000
Per MPI rank memory allocation (min/avg/max) = 11.62 | 11.64 | 11.68 Mbytes
Step PotEng Temp Press KinEng Lx Ly Lz Pzz S/CPU Density 
 1014001    2839.6189    348.16042     2.014472    6441.6251         1083         1083         1083    2.0363738            0 0.0009106405 
 1022001    607.55945     346.8354 -0.024744806    6417.1098         1083         1083         1083 -0.022392363    1342.8007 0.0009106405 
Loop time of 5.95779 on 6 procs for 8000 steps with 6208 atoms

Performance: 1160.161 ns/day, 0.021 hours/ns, 1342.779 timesteps/s
99.7% CPU use with 6 MPI tasks x no OpenMP threads

MPI task timing breakdown:
Section |  min time  |  avg time  |  max time  |%varavg| %total
---------------------------------------------------------------
Pair    | 2.1593     | 2.8949     | 4.5067     |  58.1 | 48.59
Bond    | 0.067731   | 0.09071    | 0.13705    |  10.4 |  1.52
Neigh   | 0.48106    | 0.4832     | 0.4856     |   0.2 |  8.11
Comm    | 0.16398    | 1.9916     | 2.8297     |  80.6 | 33.43
Output  | 4.0054e-05 | 8.1182e-05 | 0.00016499 |   0.0 |  0.00
Modify  | 0.33049    | 0.43845    | 0.65079    |  22.5 |  7.36
Other   |            | 0.05885    |            |       |  0.99

Nlocal:        1034.67 ave        1540 max         776 min
Histogram: 4 0 0 0 0 0 0 0 0 2
Nghost:        340.833 ave         500 max          95 min
Histogram: 1 0 0 0 1 0 0 3 0 1
Neighs:        18069.2 ave       27280 max       12398 min
Histogram: 2 1 1 0 0 0 0 0 1 1

Total # of neighbors = 108415
Ave neighs/atom = 17.463756
Ave special neighs/atom = 1.9793814
Neighbor list builds = 319
Dangerous builds = 0

if "${myDensity} > 1.0" then "jump SELF break"

next a
jump SELF loop
variable a loop 1000
change_box all x scale 0.95 y scale 0.95 z scale 0.95 remap
Changing box ...
  orthogonal box = (85.575000 58.500000 58.500000) to (1114.4250 1141.5000 1141.5000)
  orthogonal box = (85.575000 85.575000 58.500000) to (1114.4250 1114.4250 1141.5000)
  orthogonal box = (85.575000 85.575000 85.575000) to (1114.4250 1114.4250 1114.4250)
run 8000
Per MPI rank memory allocation (min/avg/max) = 11.62 | 11.64 | 11.68 Mbytes
Step PotEng Temp Press KinEng Lx Ly Lz Pzz S/CPU Density 
 1022001    2680.6968     346.8354    2.2956435    6417.1098      1028.85      1028.85      1028.85    2.3144361            0 0.0010621263 
 1030001     651.6378    350.88348 0.0034879613    6492.0069      1028.85      1028.85      1028.85  0.025725557    1386.4337 0.0010621263 
Loop time of 5.77031 on 6 procs for 8000 steps with 6208 atoms

Performance: 1197.856 ns/day, 0.020 hours/ns, 1386.408 timesteps/s
99.7% CPU use with 6 MPI tasks x no OpenMP threads

MPI task timing breakdown:
Section |  min time  |  avg time  |  max time  |%varavg| %total
---------------------------------------------------------------
Pair    | 2.0787     | 2.9134     | 4.2538     |  55.2 | 50.49
Bond    | 0.068112   | 0.090971   | 0.13324    |   9.7 |  1.58
Neigh   | 0.45458    | 0.45808    | 0.46179    |   0.3 |  7.94
Comm    | 0.27269    | 1.8087     | 2.7555     |  80.3 | 31.34
Output  | 4.6015e-05 | 8.6625e-05 | 0.00018001 |   0.0 |  0.00
Modify  | 0.33146    | 0.44012    | 0.63961    |  20.9 |  7.63
Other   |            | 0.05896    |            |       |  1.02

Nlocal:        1034.67 ave        1486 max         777 min
Histogram: 3 1 0 0 0 0 0 0 0 2
Nghost:        432.000 ave         590 max         254 min
Histogram: 1 0 1 0 1 1 0 0 0 2
Neighs:        17576.3 ave       25381 max       11305 min
Histogram: 1 1 2 0 0 0 0 0 0 2

Total # of neighbors = 105458
Ave neighs/atom = 16.987436
Ave special neighs/atom = 1.9793814
Neighbor list builds = 321
Dangerous builds = 0

if "${myDensity} > 1.0" then "jump SELF break"

next a
jump SELF loop
variable a loop 1000
change_box all x scale 0.95 y scale 0.95 z scale 0.95 remap
Changing box ...
  orthogonal box = (111.29625 85.575000 85.575000) to (1088.7037 1114.4250 1114.4250)
  orthogonal box = (111.29625 111.29625 85.575000) to (1088.7037 1088.7037 1114.4250)
  orthogonal box = (111.29625 111.29625 111.29625) to (1088.7037 1088.7037 1088.7037)
run 8000
Per MPI rank memory allocation (min/avg/max) = 11.62 | 11.64 | 11.68 Mbytes
Step PotEng Temp Press KinEng Lx Ly Lz Pzz S/CPU Density 
 1030001    2797.9847    350.88348    2.7180022    6492.0069     977.4075     977.4075     977.4075    2.8307768            0 0.0012388118 
 1038001    649.42854    344.03267 -0.0035271597    6365.2539     977.4075     977.4075     977.4075  0.037629506    1496.0452 0.0012388118 
Loop time of 5.34754 on 6 procs for 8000 steps with 6208 atoms

Performance: 1292.557 ns/day, 0.019 hours/ns, 1496.015 timesteps/s
99.7% CPU use with 6 MPI tasks x no OpenMP threads

MPI task timing breakdown:
Section |  min time  |  avg time  |  max time  |%varavg| %total
---------------------------------------------------------------
Pair    | 2.1237     | 2.8117     | 3.8805     |  44.1 | 52.58
Bond    | 0.068512   | 0.090945   | 0.13128    |   9.1 |  1.70
Neigh   | 0.4202     | 0.42325    | 0.4265     |   0.3 |  7.91
Comm    | 0.27074    | 1.525      | 2.3203     |  70.4 | 28.52
Output  | 3.9101e-05 | 7.9433e-05 | 0.00017309 |   0.0 |  0.00
Modify  | 0.33635    | 0.44045    | 0.62388    |  19.6 |  8.24
Other   |            | 0.0561     |            |       |  1.05

Nlocal:        1034.67 ave        1485 max         774 min
Histogram: 4 0 0 0 0 0 0 0 0 2
Nghost:        539.000 ave         668 max         342 min
Histogram: 1 0 0 0 1 0 2 0 1 1
Neighs:        16550.5 ave       24131 max       11971 min
Histogram: 2 2 0 0 0 0 0 0 0 2

Total # of neighbors = 99303
Ave neighs/atom = 15.995973
Ave special neighs/atom = 1.9793814
Neighbor list builds = 324
Dangerous builds = 0

if "${myDensity} > 1.0" then "jump SELF break"

next a
jump SELF loop
variable a loop 1000
change_box all x scale 0.95 y scale 0.95 z scale 0.95 remap
Changing box ...
  orthogonal box = (135.73144 111.29625 111.29625) to (1064.2686 1088.7037 1088.7037)
  orthogonal box = (135.73144 135.73144 111.29625) to (1064.2686 1064.2686 1088.7037)
  orthogonal box = (135.73144 135.73144 135.73144) to (1064.2686 1064.2686 1064.2686)
run 8000
Per MPI rank memory allocation (min/avg/max) = 11.62 | 11.64 | 11.68 Mbytes
Step PotEng Temp Press KinEng Lx Ly Lz Pzz S/CPU Density 
 1038001    2766.0246    344.03267    3.1282167    6365.2539    928.53712    928.53712    928.53712    3.1477069            0 0.0014448891 
 1046001    672.26158    351.85482   0.01923787    6509.9784    928.53712    928.53712    928.53712   0.01877176    1486.2419 0.0014448891 
Loop time of 5.38281 on 6 procs for 8000 steps with 6208 atoms

Performance: 1284.088 ns/day, 0.019 hours/ns, 1486.213 timesteps/s
99.7% CPU use with 6 MPI tasks x no OpenMP threads

MPI task timing breakdown:
Section |  min time  |  avg time  |  max time  |%varavg| %total
---------------------------------------------------------------
Pair    | 1.9462     | 2.7597     | 3.8734     |  46.5 | 51.27
Bond    | 0.068928   | 0.091396   | 0.12842    |   8.5 |  1.70
Neigh   | 0.41224    | 0.41633    | 0.42032    |   0.4 |  7.73
Comm    | 0.3363     | 1.6193     | 2.5379     |  70.1 | 30.08
Output  | 4.6968e-05 | 8.7301e-05 | 0.00017715 |   0.0 |  0.00
Modify  | 0.33738    | 0.44141    | 0.61464    |  18.3 |  8.20
Other   |            | 0.05454    |            |       |  1.01

Nlocal:        1034.67 ave        1470 max         777 min
Histogram: 3 1 0 0 0 0 0 0 1 1
Nghost:        624.500 ave         790 max         530 min
Histogram: 2 0 2 0 0 0 0 1 0 1
Neighs:        17050.8 ave       24818 max       11734 min
Histogram: 1 2 0 1 0 0 0 0 1 1

Total # of neighbors = 102305
Ave neighs/atom = 16.479543
Ave special neighs/atom = 1.9793814
Neighbor list builds = 324
Dangerous builds = 0

if "${myDensity} > 1.0" then "jump SELF break"

next a
jump SELF loop
variable a loop 1000
change_box all x scale 0.95 y scale 0.95 z scale 0.95 remap
Changing box ...
  orthogonal box = (158.94487 135.73144 135.73144) to (1041.0551 1064.2686 1064.2686)
  orthogonal box = (158.94487 158.94487 135.73144) to (1041.0551 1041.0551 1064.2686)
  orthogonal box = (158.94487 158.94487 158.94487) to (1041.0551 1041.0551 1041.0551)
run 8000
Per MPI rank memory allocation (min/avg/max) = 11.63 | 11.64 | 11.68 Mbytes
Step PotEng Temp Press KinEng Lx Ly Lz Pzz S/CPU Density 
 1046001     2810.472    351.85482      3.66661    6509.9784    882.11027    882.11027    882.11027    3.6595864            0 0.0016852475 
 1054001    649.16877    358.70437 0.0049804112     6636.708    882.11027    882.11027    882.11027 -0.0054302591    1396.9027 0.0016852475 
Loop time of 5.72705 on 6 procs for 8000 steps with 6208 atoms

Performance: 1206.904 ns/day, 0.020 hours/ns, 1396.879 timesteps/s
99.6% CPU use with 6 MPI tasks x no OpenMP threads

MPI task timing breakdown:
Section |  min time  |  avg time  |  max time  |%varavg| %total
---------------------------------------------------------------
Pair    | 2.0668     | 2.7967     | 4.2382     |  49.4 | 48.83
Bond    | 0.067814   | 0.091481   | 0.13052    |   8.4 |  1.60
Neigh   | 0.4355     | 0.439      | 0.44242    |   0.3 |  7.67
Comm    | 0.27614    | 1.9003     | 2.7097     |  68.4 | 33.18
Output  | 4.7922e-05 | 8.4758e-05 | 0.0001719  |   0.0 |  0.00
Modify  | 0.33109    | 0.44145    | 0.62761    |  17.8 |  7.71
Other   |            | 0.05799    |            |       |  1.01

Nlocal:        1034.67 ave        1481 max         776 min
Histogram: 2 1 1 0 0 0 0 1 0 1
Nghost:        627.333 ave         714 max         533 min
Histogram: 1 0 1 0 0 2 0 1 0 1
Neighs:        16934.5 ave       26935 max       11490 min
Histogram: 3 0 1 0 0 0 1 0 0 1

Total # of neighbors = 101607
Ave neighs/atom = 16.367107
Ave special neighs/atom = 1.9793814
Neighbor list builds = 333
Dangerous builds = 0

if "${myDensity} > 1.0" then "jump SELF break"

next a
jump SELF loop
variable a loop 1000
change_box all x scale 0.95 y scale 0.95 z scale 0.95 remap
Changing box ...
  orthogonal box = (180.99762 158.94487 158.94487) to (1019.0024 1041.0551 1041.0551)
  orthogonal box = (180.99762 180.99762 158.94487) to (1019.0024 1019.0024 1041.0551)
  orthogonal box = (180.99762 180.99762 180.99762) to (1019.0024 1019.0024 1019.0024)
run 8000
Per MPI rank memory allocation (min/avg/max) = 11.63 | 11.64 | 11.68 Mbytes
Step PotEng Temp Press KinEng Lx Ly Lz Pzz S/CPU Density 
 1054001    2782.7347    358.70437    4.3155132     6636.708    838.00476    838.00476    838.00476    4.2760392            0 0.0019655898 
 1062001    676.61358    354.11236  0.048043348    6551.7472    838.00476    838.00476    838.00476    0.1105744     1476.005 0.0019655898 
Loop time of 5.42013 on 6 procs for 8000 steps with 6208 atoms

Performance: 1275.246 ns/day, 0.019 hours/ns, 1475.979 timesteps/s
99.6% CPU use with 6 MPI tasks x no OpenMP threads

MPI task timing breakdown:
Section |  min time  |  avg time  |  max time  |%varavg| %total
---------------------------------------------------------------
Pair    | 2.0998     | 2.7258     | 4.0054     |  45.1 | 50.29
Bond    | 0.069308   | 0.091397   | 0.12524    |   7.5 |  1.69
Neigh   | 0.39674    | 0.39937    | 0.40195    |   0.3 |  7.37
Comm    | 0.26004    | 1.709      | 2.438      |  65.2 | 31.53
Output  | 3.8862e-05 | 7.3155e-05 | 0.00015807 |   0.0 |  0.00
Modify  | 0.33656    | 0.4425     | 0.61423    |  16.4 |  8.16
Other   |            | 0.05199    |            |       |  0.96

Nlocal:        1034.67 ave        1415 max         796 min
Histogram: 2 1 0 1 0 0 0 0 1 1
Nghost:        677.500 ave         747 max         550 min
Histogram: 1 0 0 0 1 0 0 2 0 2
Neighs:        16386.2 ave       23451 max       11669 min
Histogram: 2 0 2 0 0 0 0 1 0 1

Total # of neighbors = 98317
Ave neighs/atom = 15.837146
Ave special neighs/atom = 1.9793814
Neighbor list builds = 328
Dangerous builds = 0

if "${myDensity} > 1.0" then "jump SELF break"

next a
jump SELF loop
variable a loop 1000
change_box all x scale 0.95 y scale 0.95 z scale 0.95 remap
Changing box ...
  orthogonal box = (201.94774 180.99762 180.99762) to (998.05226 1019.0024 1019.0024)
  orthogonal box = (201.94774 201.94774 180.99762) to (998.05226 998.05226 1019.0024)
  orthogonal box = (201.94774 201.94774 201.94774) to (998.05226 998.05226 998.05226)
run 8000
Per MPI rank memory allocation (min/avg/max) = 11.63 | 11.64 | 11.68 Mbytes
Step PotEng Temp Press KinEng Lx Ly Lz Pzz S/CPU Density 
 1062001    2840.8251    354.11236    5.0162942    6551.7472    796.10452    796.10452    796.10452    5.2031439            0 0.0022925672 
 1070001    668.21384    351.52636  0.036558303    6503.9014    796.10452    796.10452    796.10452   0.17430161    1539.7594 0.0022925672 
Loop time of 5.19571 on 6 procs for 8000 steps with 6208 atoms

Performance: 1330.328 ns/day, 0.018 hours/ns, 1539.731 timesteps/s
99.7% CPU use with 6 MPI tasks x no OpenMP threads

MPI task timing breakdown:
Section |  min time  |  avg time  |  max time  |%varavg| %total
---------------------------------------------------------------
Pair    | 2.0802     | 2.7497     | 3.7169     |  37.0 | 52.92
Bond    | 0.069808   | 0.091382   | 0.12605    |   7.6 |  1.76
Neigh   | 0.36937    | 0.37221    | 0.37477    |   0.3 |  7.16
Comm    | 0.39239    | 1.4892     | 2.2622     |  59.0 | 28.66
Output  | 4.1962e-05 | 7.6453e-05 | 0.00015903 |   0.0 |  0.00
Modify  | 0.34079    | 0.44209    | 0.61276    |  16.3 |  8.51
Other   |            | 0.05099    |            |       |  0.98

Nlocal:        1034.67 ave        1424 max         752 min
Histogram: 2 1 0 1 0 0 0 0 0 2
Nghost:        622.333 ave         732 max         463 min
Histogram: 1 0 0 1 1 0 0 0 1 2
Neighs:        16537.3 ave       24079 max       11545 min
Histogram: 1 1 2 0 0 0 0 1 0 1

Total # of neighbors = 99224
Ave neighs/atom = 15.983247
Ave special neighs/atom = 1.9793814
Neighbor list builds = 321
Dangerous builds = 0

if "${myDensity} > 1.0" then "jump SELF break"

next a
jump SELF loop
variable a loop 1000
change_box all x scale 0.95 y scale 0.95 z scale 0.95 remap
Changing box ...
  orthogonal box = (221.85035 201.94774 201.94774) to (978.14965 998.05226 998.05226)
  orthogonal box = (221.85035 221.85035 201.94774) to (978.14965 978.14965 998.05226)
  orthogonal box = (221.85035 221.85035 221.85035) to (978.14965 978.14965 978.14965)
run 8000
Per MPI rank memory allocation (min/avg/max) = 11.63 | 11.64 | 11.68 Mbytes
Step PotEng Temp Press KinEng Lx Ly Lz Pzz S/CPU Density 
 1070001    2808.8193    351.52636    5.8137981    6503.9014    756.29929    756.29929    756.29929    5.9069942            0 0.0026739375 
 1078001     640.2881    351.34136  0.022861251    6500.4785    756.29929    756.29929    756.29929  0.053974991    1587.9563 0.0026739375 
Loop time of 5.038 on 6 procs for 8000 steps with 6208 atoms

Performance: 1371.972 ns/day, 0.017 hours/ns, 1587.931 timesteps/s
99.7% CPU use with 6 MPI tasks x no OpenMP threads

MPI task timing breakdown:
Section |  min time  |  avg time  |  max time  |%varavg| %total
---------------------------------------------------------------
Pair    | 2.1709     | 2.7351     | 3.7091     |  34.2 | 54.29
Bond    | 0.069304   | 0.091565   | 0.12595    |   6.9 |  1.82
Neigh   | 0.36762    | 0.37037    | 0.37296    |   0.3 |  7.35
Comm    | 0.21748    | 1.3528     | 2.0282     |  57.2 | 26.85
Output  | 4.1962e-05 | 7.2797e-05 | 0.00013685 |   0.0 |  0.00
Modify  | 0.33805    | 0.44326    | 0.59873    |  14.7 |  8.80
Other   |            | 0.0448     |            |       |  0.89

Nlocal:        1034.67 ave        1391 max         783 min
Histogram: 1 1 1 1 0 0 0 1 0 1
Nghost:        649.333 ave         873 max         408 min
Histogram: 1 0 0 1 0 2 1 0 0 1
Neighs:        16596.0 ave       22272 max       12078 min
Histogram: 1 0 1 2 0 0 0 1 0 1

Total # of neighbors = 99576
Ave neighs/atom = 16.039948
Ave special neighs/atom = 1.9793814
Neighbor list builds = 325
Dangerous builds = 0

if "${myDensity} > 1.0" then "jump SELF break"

next a
jump SELF loop
variable a loop 1000
change_box all x scale 0.95 y scale 0.95 z scale 0.95 remap
Changing box ...
  orthogonal box = (240.75784 221.85035 221.85035) to (959.24216 978.14965 978.14965)
  orthogonal box = (240.75784 240.75784 221.85035) to (959.24216 959.24216 978.14965)
  orthogonal box = (240.75784 240.75784 240.75784) to (959.24216 959.24216 959.24216)
run 8000
Per MPI rank memory allocation (min/avg/max) = 11.63 | 11.64 | 11.68 Mbytes
Step PotEng Temp Press KinEng Lx Ly Lz Pzz S/CPU Density 
 1078001    2764.8955    351.34136    6.7645648    6500.4785    718.48433    718.48433    718.48433    6.8345706            0 0.0031187491 
 1086001    723.02235    354.38156  0.041338819     6556.728    718.48433    718.48433    718.48433 -0.0021571903    1599.5132 0.0031187491 
Loop time of 5.00161 on 6 procs for 8000 steps with 6208 atoms

Performance: 1381.956 ns/day, 0.017 hours/ns, 1599.486 timesteps/s
99.7% CPU use with 6 MPI tasks x no OpenMP threads

MPI task timing breakdown:
Section |  min time  |  avg time  |  max time  |%varavg| %total
---------------------------------------------------------------
Pair    | 1.9744     | 2.7237     | 3.6792     |  32.6 | 54.46
Bond    | 0.068776   | 0.091566   | 0.12767    |   6.4 |  1.83
Neigh   | 0.36237    | 0.3651     | 0.36772    |   0.3 |  7.30
Comm    | 0.20763    | 1.3326     | 2.1938     |  54.6 | 26.64
Output  | 3.9816e-05 | 6.64e-05   | 0.00012398 |   0.0 |  0.00
Modify  | 0.33549    | 0.443      | 0.60755    |  13.6 |  8.86
Other   |            | 0.04561    |            |       |  0.91

Nlocal:        1034.67 ave        1432 max         760 min
Histogram: 1 1 2 0 0 0 0 1 0 1
Nghost:        709.000 ave        1091 max         450 min
Histogram: 1 0 2 0 1 1 0 0 0 1
Neighs:        15964.8 ave       21858 max       10731 min
Histogram: 1 0 1 2 0 0 0 0 1 1

Total # of neighbors = 95789
Ave neighs/atom = 15.429929
Ave special neighs/atom = 1.9793814
Neighbor list builds = 327
Dangerous builds = 0

if "${myDensity} > 1.0" then "jump SELF break"

next a
jump SELF loop
variable a loop 1000
change_box all x scale 0.95 y scale 0.95 z scale 0.95 remap
Changing box ...
  orthogonal box = (258.71994 240.75784 240.75784) to (941.28006 959.24216 959.24216)
  orthogonal box = (258.71994 258.71994 240.75784) to (941.28006 941.28006 959.24216)
  orthogonal box = (258.71994 258.71994 258.71994) to (941.28006 941.28006 941.28006)
run 8000
Per MPI rank memory allocation (min/avg/max) = 11.63 | 11.65 | 11.68 Mbytes
Step PotEng Temp Press KinEng Lx Ly Lz Pzz S/CPU Density 
 1086001    2856.1286    354.38156    7.9117952     6556.728    682.56011    682.56011    682.56011    7.6921137            0 0.0036375554 
 1094001    708.26086    357.67293   0.17619324    6617.6244    682.56011    682.56011    682.56011   0.10435342    1577.3459 0.0036375554 
Loop time of 5.0719 on 6 procs for 8000 steps with 6208 atoms

Performance: 1362.803 ns/day, 0.018 hours/ns, 1577.319 timesteps/s
99.6% CPU use with 6 MPI tasks x no OpenMP threads

MPI task timing breakdown:
Section |  min time  |  avg time  |  max time  |%varavg| %total
---------------------------------------------------------------
Pair    | 1.9664     | 2.684      | 3.6107     |  38.8 | 52.92
Bond    | 0.068074   | 0.09211    | 0.12858    |   7.4 |  1.82
Neigh   | 0.36271    | 0.36765    | 0.37163    |   0.5 |  7.25
Comm    | 0.39105    | 1.4336     | 2.2732     |  61.8 | 28.27
Output  | 4.1008e-05 | 7.534e-05  | 0.00015712 |   0.0 |  0.00
Modify  | 0.33211    | 0.445      | 0.60986    |  15.7 |  8.77
Other   |            | 0.0494     |            |       |  0.97

Nlocal:        1034.67 ave        1398 max         772 min
Histogram: 2 0 1 1 0 0 0 0 1 1
Nghost:        861.333 ave        1307 max         520 min
Histogram: 1 0 1 0 3 0 0 0 0 1
Neighs:        16475.5 ave       23443 max       10512 min
Histogram: 1 1 0 1 1 0 0 1 0 1

Total # of neighbors = 98853
Ave neighs/atom = 15.923486
Ave special neighs/atom = 1.9793814
Neighbor list builds = 337
Dangerous builds = 0

if "${myDensity} > 1.0" then "jump SELF break"

next a
jump SELF loop
variable a loop 1000
change_box all x scale 0.95 y scale 0.95 z scale 0.95 remap
Changing box ...
  orthogonal box = (275.78395 258.71994 258.71994) to (924.21605 941.28006 941.28006)
  orthogonal box = (275.78395 275.78395 258.71994) to (924.21605 924.21605 941.28006)
  orthogonal box = (275.78395 275.78395 275.78395) to (924.21605 924.21605 924.21605)
run 8000
Per MPI rank memory allocation (min/avg/max) = 11.63 | 11.65 | 11.68 Mbytes
Step PotEng Temp Press KinEng Lx Ly Lz Pzz S/CPU Density 
 1094001    2944.2263    357.67293    9.4470366    6617.6244    648.43211    648.43211    648.43211    9.3081402            0 0.0042426656 
 1102001    686.92583    352.56164  0.017195414    6523.0559    648.43211    648.43211    648.43211  0.063485044    1596.9208 0.0042426656 
Loop time of 5.00986 on 6 procs for 8000 steps with 6208 atoms

Performance: 1379.680 ns/day, 0.017 hours/ns, 1596.852 timesteps/s
99.7% CPU use with 6 MPI tasks x no OpenMP threads

MPI task timing breakdown:
Section |  min time  |  avg time  |  max time  |%varavg| %total
---------------------------------------------------------------
Pair    | 1.974      | 2.6551     | 3.5146     |  37.8 | 53.00
Bond    | 0.06633    | 0.092337   | 0.13124    |   7.2 |  1.84
Neigh   | 0.36441    | 0.36921    | 0.37307    |   0.5 |  7.37
Comm    | 0.35156    | 1.3889     | 2.1878     |  60.6 | 27.72
Output  | 0.002573   | 0.0028551  | 0.003298   |   0.4 |  0.06
Modify  | 0.32385    | 0.44661    | 0.62365    |  15.3 |  8.91
Other   |            | 0.05491    |            |       |  1.10

Nlocal:        1034.67 ave        1457 max         708 min
Histogram: 1 1 1 0 1 0 1 0 0 1
Nghost:        907.500 ave        1441 max         480 min
Histogram: 1 0 0 2 1 1 0 0 0 1
Neighs:        16073.5 ave       22033 max       10814 min
Histogram: 1 1 1 0 1 0 0 0 0 2

Total # of neighbors = 96441
Ave neighs/atom = 15.534955
Ave special neighs/atom = 1.9793814
Neighbor list builds = 334
Dangerous builds = 0

if "${myDensity} > 1.0" then "jump SELF break"

next a
jump SELF loop
variable a loop 1000
change_box all x scale 0.95 y scale 0.95 z scale 0.95 remap
Changing box ...
  orthogonal box = (291.99475 275.78395 275.78395) to (908.00525 924.21605 924.21605)
  orthogonal box = (291.99475 291.99475 275.78395) to (908.00525 908.00525 924.21605)
  orthogonal box = (291.99475 291.99475 291.99475) to (908.00525 908.00525 908.00525)
run 8000
Per MPI rank memory allocation (min/avg/max) = 11.77 | 11.81 | 11.87 Mbytes
Step PotEng Temp Press KinEng Lx Ly Lz Pzz S/CPU Density 
 1102001    2809.3548    352.56164    10.758169    6523.0559     616.0105     616.0105     616.0105    10.762504            0 0.0049484363 
 1110001    712.12596    355.63308 -0.019755439    6579.8834     616.0105     616.0105     616.0105  0.069305399    1428.8187 0.0049484363 
Loop time of 5.59911 on 6 procs for 8000 steps with 6208 atoms

Performance: 1234.482 ns/day, 0.019 hours/ns, 1428.798 timesteps/s
99.7% CPU use with 6 MPI tasks x no OpenMP threads

MPI task timing breakdown:
Section |  min time  |  avg time  |  max time  |%varavg| %total
---------------------------------------------------------------
Pair    | 1.7979     | 2.6958     | 4.0717     |  46.4 | 48.15
Bond    | 0.065259   | 0.092545   | 0.13794    |   7.6 |  1.65
Neigh   | 0.39093    | 0.39639    | 0.40019    |   0.5 |  7.08
Comm    | 0.32214    | 1.9068     | 2.9299     |  62.8 | 34.06
Output  | 3.6001e-05 | 7.8479e-05 | 0.00015306 |   0.0 |  0.00
Modify  | 0.31882    | 0.44705    | 0.65319    |  15.9 |  7.98
Other   |            | 0.0604     |            |       |  1.08

Nlocal:        1034.67 ave        1597 max         738 min
Histogram: 1 2 1 0 1 0 0 0 0 1
Nghost:        928.333 ave        1467 max         554 min
Histogram: 1 1 1 0 0 2 0 0 0 1
Neighs:        16272.3 ave       27650 max       10382 min
Histogram: 1 2 1 0 1 0 0 0 0 1

Total # of neighbors = 97634
Ave neighs/atom = 15.727126
Ave special neighs/atom = 1.9793814
Neighbor list builds = 333
Dangerous builds = 0

if "${myDensity} > 1.0" then "jump SELF break"

next a
jump SELF loop
variable a loop 1000
change_box all x scale 0.95 y scale 0.95 z scale 0.95 remap
Changing box ...
  orthogonal box = (307.39501 291.99475 291.99475) to (892.60499 908.00525 908.00525)
  orthogonal box = (307.39501 307.39501 291.99475) to (892.60499 892.60499 908.00525)
  orthogonal box = (307.39501 307.39501 307.39501) to (892.60499 892.60499 892.60499)
run 8000
Per MPI rank memory allocation (min/avg/max) = 11.77 | 11.81 | 11.87 Mbytes
Step PotEng Temp Press KinEng Lx Ly Lz Pzz S/CPU Density 
 1110001    2806.5548    355.63308    12.495174    6579.8834    585.20997    585.20997    585.20997    12.630198            0 0.0057716126 
 1118001    641.02926    352.80261   0.19479356    6527.5143    585.20997    585.20997    585.20997   0.27631484    1440.1017 0.0057716126 
Loop time of 5.55526 on 6 procs for 8000 steps with 6208 atoms

Performance: 1244.226 ns/day, 0.019 hours/ns, 1440.076 timesteps/s
99.7% CPU use with 6 MPI tasks x no OpenMP threads

MPI task timing breakdown:
Section |  min time  |  avg time  |  max time  |%varavg| %total
---------------------------------------------------------------
Pair    | 1.8897     | 2.7882     | 4.0695     |  42.1 | 50.19
Bond    | 0.064606   | 0.092423   | 0.13903    |   7.8 |  1.66
Neigh   | 0.37756    | 0.38276    | 0.38591    |   0.4 |  6.89
Comm    | 0.28869    | 1.7857     | 2.8136     |  60.7 | 32.15
Output  | 4.6015e-05 | 8.6705e-05 | 0.00017619 |   0.0 |  0.00
Modify  | 0.31498    | 0.44628    | 0.6583     |  16.4 |  8.03
Other   |            | 0.05974    |            |       |  1.08

Nlocal:        1034.67 ave        1496 max         693 min
Histogram: 1 1 0 1 1 0 1 0 0 1
Nghost:        1034.17 ave        1716 max         639 min
Histogram: 1 1 1 1 1 0 0 0 0 1
Neighs:        17114.7 ave       23509 max       11812 min
Histogram: 1 0 1 1 1 0 0 1 0 1

Total # of neighbors = 102688
Ave neighs/atom = 16.541237
Ave special neighs/atom = 1.9793814
Neighbor list builds = 326
Dangerous builds = 0

if "${myDensity} > 1.0" then "jump SELF break"

next a
jump SELF loop
variable a loop 1000
change_box all x scale 0.95 y scale 0.95 z scale 0.95 remap
Changing box ...
  orthogonal box = (322.02526 307.39501 307.39501) to (877.97474 892.60499 892.60499)
  orthogonal box = (322.02526 322.02526 307.39501) to (877.97474 877.97474 892.60499)
  orthogonal box = (322.02526 322.02526 322.02526) to (877.97474 877.97474 877.97474)
run 8000
Per MPI rank memory allocation (min/avg/max) = 11.77 | 11.82 | 11.87 Mbytes
Step PotEng Temp Press KinEng Lx Ly Lz Pzz S/CPU Density 
 1118001    2840.4359    352.80261    14.846863    6527.5143    555.94948    555.94948    555.94948    14.914556            0 0.0067317249 
 1126001    529.95977    356.62881  0.079648612    6598.3062    555.94948    555.94948    555.94948  -0.10297801     1602.419 0.0067317249 
Loop time of 4.99247 on 6 procs for 8000 steps with 6208 atoms

Performance: 1384.484 ns/day, 0.017 hours/ns, 1602.412 timesteps/s
99.7% CPU use with 6 MPI tasks x no OpenMP threads

MPI task timing breakdown:
Section |  min time  |  avg time  |  max time  |%varavg| %total
---------------------------------------------------------------
Pair    | 1.8525     | 2.7872     | 3.6041     |  32.8 | 55.83
Bond    | 0.063312   | 0.092475   | 0.12832    |   6.6 |  1.85
Neigh   | 0.35167    | 0.35669    | 0.3601     |   0.5 |  7.14
Comm    | 0.28005    | 1.262      | 2.3329     |  56.9 | 25.28
Output  | 3.4094e-05 | 5.0584e-05 | 7.8917e-05 |   0.0 |  0.00
Modify  | 0.30906    | 0.44639    | 0.60722    |  13.9 |  8.94
Other   |            | 0.04762    |            |       |  0.95

Nlocal:        1034.67 ave        1325 max         724 min
Histogram: 1 0 0 2 0 0 2 0 0 1
Nghost:        1043.33 ave        1709 max         722 min
Histogram: 2 1 0 1 1 0 0 0 0 1
Neighs:        16610.3 ave       21169 max       10684 min
Histogram: 1 0 0 0 1 1 1 1 0 1

Total # of neighbors = 99662
Ave neighs/atom = 16.053802
Ave special neighs/atom = 1.9793814
Neighbor list builds = 325
Dangerous builds = 0

if "${myDensity} > 1.0" then "jump SELF break"

next a
jump SELF loop
variable a loop 1000
change_box all x scale 0.95 y scale 0.95 z scale 0.95 remap
Changing box ...
  orthogonal box = (335.92400 322.02526 322.02526) to (864.07600 877.97474 877.97474)
  orthogonal box = (335.92400 335.92400 322.02526) to (864.07600 864.07600 877.97474)
  orthogonal box = (335.92400 335.92400 335.92400) to (864.07600 864.07600 864.07600)
run 8000
Per MPI rank memory allocation (min/avg/max) = 11.77 | 11.82 | 11.87 Mbytes
Step PotEng Temp Press KinEng Lx Ly Lz Pzz S/CPU Density 
 1126001    2673.6084    356.62881    17.195686    6598.3062      528.152      528.152      528.152    17.361699            0 0.0078515525 
 1134001     622.4888    349.78768   0.22112355    6471.7324      528.152      528.152      528.152   0.06484412    1591.2294 0.0078515525 
Loop time of 5.02764 on 6 procs for 8000 steps with 6208 atoms

Performance: 1374.799 ns/day, 0.017 hours/ns, 1591.203 timesteps/s
99.7% CPU use with 6 MPI tasks x no OpenMP threads

MPI task timing breakdown:
Section |  min time  |  avg time  |  max time  |%varavg| %total
---------------------------------------------------------------
Pair    | 1.8103     | 2.831      | 3.5121     |  34.1 | 56.31
Bond    | 0.063192   | 0.092452   | 0.11792    |   5.5 |  1.84
Neigh   | 0.34009    | 0.34472    | 0.34782    |   0.4 |  6.86
Comm    | 0.47839    | 1.2746     | 2.431      |  57.3 | 25.35
Output  | 4.0054e-05 | 7.0016e-05 | 0.00015712 |   0.0 |  0.00
Modify  | 0.30753    | 0.44577    | 0.55762    |  11.8 |  8.87
Other   |            | 0.03904    |            |       |  0.78

Nlocal:        1034.67 ave        1248 max         690 min
Histogram: 1 0 0 0 1 1 0 1 1 1
Nghost:        1167.67 ave        1875 max         933 min
Histogram: 4 0 1 0 0 0 0 0 0 1
Neighs:        17299.3 ave       22971 max       10681 min
Histogram: 1 0 0 0 2 1 0 0 1 1

Total # of neighbors = 103796
Ave neighs/atom = 16.719716
Ave special neighs/atom = 1.9793814
Neighbor list builds = 333
Dangerous builds = 0

if "${myDensity} > 1.0" then "jump SELF break"

next a
jump SELF loop
variable a loop 1000
change_box all x scale 0.95 y scale 0.95 z scale 0.95 remap
Changing box ...
  orthogonal box = (349.12780 335.92400 335.92400) to (850.87220 864.07600 864.07600)
  orthogonal box = (349.12780 349.12780 335.92400) to (850.87220 850.87220 864.07600)
  orthogonal box = (349.12780 349.12780 349.12780) to (850.87220 850.87220 850.87220)
run 8000
Per MPI rank memory allocation (min/avg/max) = 11.77 | 11.82 | 11.87 Mbytes
Step PotEng Temp Press KinEng Lx Ly Lz Pzz S/CPU Density 
 1134001    2813.4624    349.78768    20.146601    6471.7324     501.7444     501.7444     501.7444    19.744702            0 0.0091576644 
 1142001    624.21941    352.19282   0.31649744    6516.2321     501.7444     501.7444     501.7444    0.3371537    1601.2426 0.0091576644 
Loop time of 4.99615 on 6 procs for 8000 steps with 6208 atoms

Performance: 1383.466 ns/day, 0.017 hours/ns, 1601.234 timesteps/s
99.7% CPU use with 6 MPI tasks x no OpenMP threads

MPI task timing breakdown:
Section |  min time  |  avg time  |  max time  |%varavg| %total
---------------------------------------------------------------
Pair    | 1.9419     | 2.893      | 3.6258     |  32.1 | 57.91
Bond    | 0.064596   | 0.092692   | 0.11259    |   5.2 |  1.86
Neigh   | 0.33845    | 0.34269    | 0.34644    |   0.4 |  6.86
Comm    | 0.37888    | 1.1842     | 2.2621     |  56.6 | 23.70
Output  | 4.5061e-05 | 5.9326e-05 | 8.9884e-05 |   0.0 |  0.00
Modify  | 0.31485    | 0.44667    | 0.53082    |  11.1 |  8.94
Other   |            | 0.03683    |            |       |  0.74

Nlocal:        1034.67 ave        1235 max         735 min
Histogram: 1 0 0 1 1 0 0 0 0 3
Nghost:        1198.33 ave        1879 max         900 min
Histogram: 1 2 1 1 0 0 0 0 0 1
Neighs:        17007.2 ave       22313 max       13178 min
Histogram: 2 0 1 0 0 1 1 0 0 1

Total # of neighbors = 102043
Ave neighs/atom = 16.437339
Ave special neighs/atom = 1.9793814
Neighbor list builds = 326
Dangerous builds = 0

if "${myDensity} > 1.0" then "jump SELF break"

next a
jump SELF loop
variable a loop 1000
change_box all x scale 0.95 y scale 0.95 z scale 0.95 remap
Changing box ...
  orthogonal box = (361.67141 349.12780 349.12780) to (838.32859 850.87220 850.87220)
  orthogonal box = (361.67141 361.67141 349.12780) to (838.32859 838.32859 850.87220)
  orthogonal box = (361.67141 361.67141 361.67141) to (838.32859 838.32859 838.32859)
run 8000
Per MPI rank memory allocation (min/avg/max) = 11.78 | 11.82 | 11.87 Mbytes
Step PotEng Temp Press KinEng Lx Ly Lz Pzz S/CPU Density 
 1142001    2811.9603    352.19282    23.428725    6516.2321    476.65718    476.65718    476.65718    23.211195            0  0.010681049 
 1150001    687.65029    346.17881  -0.28178989    6404.9615    476.65718    476.65718    476.65718  -0.62117129    1525.1964  0.010681049 
Loop time of 5.24532 on 6 procs for 8000 steps with 6208 atoms

Performance: 1317.747 ns/day, 0.018 hours/ns, 1525.170 timesteps/s
99.5% CPU use with 6 MPI tasks x no OpenMP threads

MPI task timing breakdown:
Section |  min time  |  avg time  |  max time  |%varavg| %total
---------------------------------------------------------------
Pair    | 1.9932     | 2.8495     | 3.879      |  34.6 | 54.32
Bond    | 0.062889   | 0.092696   | 0.11566    |   5.5 |  1.77
Neigh   | 0.34493    | 0.34798    | 0.35198    |   0.4 |  6.63
Comm    | 0.33975    | 1.4709     | 2.4609     |  54.1 | 28.04
Output  | 4.1008e-05 | 7.3433e-05 | 0.00016403 |   0.0 |  0.00
Modify  | 0.3058     | 0.44403    | 0.54558    |  11.6 |  8.47
Other   |            | 0.04014    |            |       |  0.77

Nlocal:        1034.67 ave        1360 max         675 min
Histogram: 1 0 0 0 1 3 0 0 0 1
Nghost:        1252.83 ave        1848 max        1079 min
Histogram: 4 1 0 0 0 0 0 0 0 1
Neighs:        16910.2 ave       24050 max       11224 min
Histogram: 1 0 1 1 1 1 0 0 0 1

Total # of neighbors = 101461
Ave neighs/atom = 16.343589
Ave special neighs/atom = 1.9793814
Neighbor list builds = 321
Dangerous builds = 0

if "${myDensity} > 1.0" then "jump SELF break"

next a
jump SELF loop
variable a loop 1000
change_box all x scale 0.95 y scale 0.95 z scale 0.95 remap
Changing box ...
  orthogonal box = (373.58784 361.67141 361.67141) to (826.41216 838.32859 838.32859)
  orthogonal box = (373.58784 373.58784 361.67141) to (826.41216 826.41216 838.32859)
  orthogonal box = (373.58784 373.58784 373.58784) to (826.41216 826.41216 826.41216)
run 8000
Per MPI rank memory allocation (min/avg/max) = 11.78 | 11.82 | 11.87 Mbytes
Step PotEng Temp Press KinEng Lx Ly Lz Pzz S/CPU Density 
 1150001    2734.1595    346.17881    26.607414    6404.9615    452.82432    452.82432    452.82432    26.562304            0   0.01245785 
 1158001    507.65468    351.00567   0.43973332    6494.2676    452.82432    452.82432    452.82432    1.0986264     1480.225   0.01245785 
Loop time of 5.40468 on 6 procs for 8000 steps with 6208 atoms

Performance: 1278.892 ns/day, 0.019 hours/ns, 1480.199 timesteps/s
99.7% CPU use with 6 MPI tasks x no OpenMP threads

MPI task timing breakdown:
Section |  min time  |  avg time  |  max time  |%varavg| %total
---------------------------------------------------------------
Pair    | 1.7609     | 2.8526     | 3.9895     |  38.5 | 52.78
Bond    | 0.061499   | 0.092352   | 0.11614    |   5.4 |  1.71
Neigh   | 0.36804    | 0.37086    | 0.37369    |   0.3 |  6.86
Comm    | 0.3469     | 1.6022     | 2.8375     |  57.4 | 29.65
Output  | 4.6015e-05 | 7.5142e-05 | 0.00016308 |   0.0 |  0.00
Modify  | 0.2991     | 0.44456    | 0.56371    |  11.8 |  8.23
Other   |            | 0.04196    |            |       |  0.78

Nlocal:        1034.67 ave        1307 max         688 min
Histogram: 1 0 0 0 1 1 1 1 0 1
Nghost:        1353.00 ave        1855 max        1142 min
Histogram: 2 1 1 1 0 0 0 0 0 1
Neighs:        17703.2 ave       26753 max       10302 min
Histogram: 1 0 0 1 2 1 0 0 0 1

Total # of neighbors = 106219
Ave neighs/atom = 17.110019
Ave special neighs/atom = 1.9793814
Neighbor list builds = 327
Dangerous builds = 0

if "${myDensity} > 1.0" then "jump SELF break"

next a
jump SELF loop
variable a loop 1000
change_box all x scale 0.95 y scale 0.95 z scale 0.95 remap
Changing box ...
  orthogonal box = (384.90845 373.58784 373.58784) to (815.09155 826.41216 826.41216)
  orthogonal box = (384.90845 384.90845 373.58784) to (815.09155 815.09155 826.41216)
  orthogonal box = (384.90845 384.90845 384.90845) to (815.09155 815.09155 815.09155)
run 8000
Per MPI rank memory allocation (min/avg/max) = 11.78 | 11.82 | 11.87 Mbytes
Step PotEng Temp Press KinEng Lx Ly Lz Pzz S/CPU Density 
 1158001    2720.4029    351.00567    32.146545    6494.2676    430.18311    430.18311    430.18311    32.584596            0  0.014530223 
 1166001    632.94066    354.90547  0.077662045    6566.4212    430.18311    430.18311    430.18311    0.4289639    1420.5663  0.014530223 
Loop time of 5.63165 on 6 procs for 8000 steps with 6208 atoms

Performance: 1227.349 ns/day, 0.020 hours/ns, 1420.543 timesteps/s
99.7% CPU use with 6 MPI tasks x no OpenMP threads

MPI task timing breakdown:
Section |  min time  |  avg time  |  max time  |%varavg| %total
---------------------------------------------------------------
Pair    | 1.5127     | 2.9152     | 4.1549     |  45.9 | 51.76
Bond    | 0.058138   | 0.092506   | 0.1192     |   6.1 |  1.64
Neigh   | 0.38425    | 0.38672    | 0.38812    |   0.2 |  6.87
Comm    | 0.37537    | 1.7454     | 3.3088     |  65.7 | 30.99
Output  | 4.1008e-05 | 7.1367e-05 | 0.00016093 |   0.0 |  0.00
Modify  | 0.28322    | 0.44563    | 0.57762    |  13.2 |  7.91
Other   |            | 0.04615    |            |       |  0.82

Nlocal:        1034.67 ave        1339 max         665 min
Histogram: 1 0 0 0 2 0 1 1 0 1
Nghost:        1352.00 ave        1748 max        1051 min
Histogram: 1 0 1 1 1 1 0 0 0 1
Neighs:        17817.2 ave       24481 max        9695 min
Histogram: 1 0 0 0 1 1 2 0 0 1

Total # of neighbors = 106903
Ave neighs/atom = 17.220200
Ave special neighs/atom = 1.9793814
Neighbor list builds = 326
Dangerous builds = 0

if "${myDensity} > 1.0" then "jump SELF break"

next a
jump SELF loop
variable a loop 1000
change_box all x scale 0.95 y scale 0.95 z scale 0.95 remap
Changing box ...
  orthogonal box = (395.66302 384.90845 384.90845) to (804.33698 815.09155 815.09155)
  orthogonal box = (395.66302 395.66302 384.90845) to (804.33698 804.33698 815.09155)
  orthogonal box = (395.66302 395.66302 395.66302) to (804.33698 804.33698 804.33698)
run 8000
Per MPI rank memory allocation (min/avg/max) = 11.78 | 11.82 | 11.87 Mbytes
Step PotEng Temp Press KinEng Lx Ly Lz Pzz S/CPU Density 
 1166001    2766.4644    354.90547     37.05597    6566.4212    408.67395    408.67395    408.67395    37.948117            0  0.016947337 
 1174001    625.23646     341.0139  -0.17305757    6309.4011    408.67395    408.67395    408.67395  -0.61548444    1493.7039  0.016947337 
Loop time of 5.35591 on 6 procs for 8000 steps with 6208 atoms

Performance: 1290.537 ns/day, 0.019 hours/ns, 1493.677 timesteps/s
99.7% CPU use with 6 MPI tasks x no OpenMP threads

MPI task timing breakdown:
Section |  min time  |  avg time  |  max time  |%varavg| %total
---------------------------------------------------------------
Pair    | 1.6852     | 2.9672     | 3.8847     |  40.0 | 55.40
Bond    | 0.060831   | 0.092628   | 0.11947    |   6.0 |  1.73
Neigh   | 0.37016    | 0.37344    | 0.376      |   0.3 |  6.97
Comm    | 0.38105    | 1.4286     | 2.8596     |  64.1 | 26.67
Output  | 3.9816e-05 | 7.0453e-05 | 0.00016499 |   0.0 |  0.00
Modify  | 0.29599    | 0.44653    | 0.5799     |  13.0 |  8.34
Other   |            | 0.04751    |            |       |  0.89

Nlocal:        1034.67 ave        1336 max         665 min
Histogram: 1 0 0 0 1 2 0 1 0 1
Nghost:        1424.67 ave        2016 max        1029 min
Histogram: 1 1 1 1 0 1 0 0 0 1
Neighs:        17534.0 ave       23111 max       10734 min
Histogram: 1 0 0 0 1 2 1 0 0 1

Total # of neighbors = 105204
Ave neighs/atom = 16.946521
Ave special neighs/atom = 1.9793814
Neighbor list builds = 326
Dangerous builds = 0

if "${myDensity} > 1.0" then "jump SELF break"

next a
jump SELF loop
variable a loop 1000
change_box all x scale 0.95 y scale 0.95 z scale 0.95 remap
Changing box ...
  orthogonal box = (405.87987 395.66302 395.66302) to (794.12013 804.33698 804.33698)
  orthogonal box = (405.87987 405.87987 395.66302) to (794.12013 794.12013 804.33698)
  orthogonal box = (405.87987 405.87987 405.87987) to (794.12013 794.12013 794.12013)
run 8000
Per MPI rank memory allocation (min/avg/max) = 11.78 | 11.82 | 11.87 Mbytes
Step PotEng Temp Press KinEng Lx Ly Lz Pzz S/CPU Density 
 1174001    2731.1344     341.0139    42.676741    6309.4011    388.24025    388.24025    388.24025    42.079539            0   0.01976654 
 1182001     603.0516    344.90104   0.10009208    6381.3204    388.24025    388.24025    388.24025  -0.78217537    1472.1402   0.01976654 
Loop time of 5.43438 on 6 procs for 8000 steps with 6208 atoms

Performance: 1271.902 ns/day, 0.019 hours/ns, 1472.109 timesteps/s
99.7% CPU use with 6 MPI tasks x no OpenMP threads

MPI task timing breakdown:
Section |  min time  |  avg time  |  max time  |%varavg| %total
---------------------------------------------------------------
Pair    | 1.527      | 3.0468     | 3.9158     |  44.4 | 56.07
Bond    | 0.054224   | 0.092931   | 0.11197    |   6.3 |  1.71
Neigh   | 0.36732    | 0.37088    | 0.37342    |   0.3 |  6.82
Comm    | 0.47162    | 1.4331     | 3.1332     |  71.4 | 26.37
Output  | 4.1008e-05 | 7.3314e-05 | 0.00018692 |   0.0 |  0.00
Modify  | 0.26378    | 0.44741    | 0.54362    |  13.6 |  8.23
Other   |            | 0.04314    |            |       |  0.79

Nlocal:        1034.67 ave        1286 max         576 min
Histogram: 1 0 0 0 0 0 2 1 1 1
Nghost:        1629.50 ave        2054 max        1312 min
Histogram: 1 1 0 2 0 0 1 0 0 1
Neighs:        18715.3 ave       24178 max        8649 min
Histogram: 1 0 0 0 1 0 0 2 0 2

Total # of neighbors = 112292
Ave neighs/atom = 18.088273
Ave special neighs/atom = 1.9793814
Neighbor list builds = 317
Dangerous builds = 0

if "${myDensity} > 1.0" then "jump SELF break"

next a
jump SELF loop
variable a loop 1000
change_box all x scale 0.95 y scale 0.95 z scale 0.95 remap
Changing box ...
  orthogonal box = (415.58588 405.87987 405.87987) to (784.41412 794.12013 794.12013)
  orthogonal box = (415.58588 415.58588 405.87987) to (784.41412 784.41412 794.12013)
  orthogonal box = (415.58588 415.58588 415.58588) to (784.41412 784.41412 784.41412)
run 8000
Per MPI rank memory allocation (min/avg/max) = 11.78 | 11.82 | 11.88 Mbytes
Step PotEng Temp Press KinEng Lx Ly Lz Pzz S/CPU Density 
 1182001    2757.2838    344.90104    50.466261    6381.3204    368.82824    368.82824    368.82824    49.372288            0  0.023054719 
 1190001    635.28488    351.40136   -0.8157837    6501.5886    368.82824    368.82824    368.82824   -1.2127915    1544.6386  0.023054719 
Loop time of 5.1793 on 6 procs for 8000 steps with 6208 atoms

Performance: 1334.544 ns/day, 0.018 hours/ns, 1544.611 timesteps/s
99.6% CPU use with 6 MPI tasks x no OpenMP threads

MPI task timing breakdown:
Section |  min time  |  avg time  |  max time  |%varavg| %total
---------------------------------------------------------------
Pair    | 1.6736     | 3.0552     | 3.5672     |  38.0 | 58.99
Bond    | 0.054978   | 0.093079   | 0.11623    |   6.2 |  1.80
Neigh   | 0.34704    | 0.3505     | 0.35279    |   0.3 |  6.77
Comm    | 0.69177    | 1.1924     | 2.7523     |  67.7 | 23.02
Output  | 4.0054e-05 | 7.0214e-05 | 0.00016594 |   0.0 |  0.00
Modify  | 0.26557    | 0.4469     | 0.54625    |  13.1 |  8.63
Other   |            | 0.04117    |            |       |  0.79

Nlocal:        1034.67 ave        1251 max         655 min
Histogram: 1 0 0 0 0 1 1 0 2 1
Nghost:        1793.00 ave        2056 max        1480 min
Histogram: 1 0 1 0 0 1 0 2 0 1
Neighs:        18201.8 ave       21583 max       11478 min
Histogram: 1 0 0 0 1 0 0 0 2 2

Total # of neighbors = 109211
Ave neighs/atom = 17.591978
Ave special neighs/atom = 1.9793814
Neighbor list builds = 326
Dangerous builds = 0

if "${myDensity} > 1.0" then "jump SELF break"

next a
jump SELF loop
variable a loop 1000
change_box all x scale 0.95 y scale 0.95 z scale 0.95 remap
Changing box ...
  orthogonal box = (424.80659 415.58588 415.58588) to (775.19341 784.41412 784.41412)
  orthogonal box = (424.80659 424.80659 415.58588) to (775.19341 775.19341 784.41412)
  orthogonal box = (424.80659 424.80659 424.80659) to (775.19341 775.19341 775.19341)
run 8000
Per MPI rank memory allocation (min/avg/max) = 11.78 | 11.83 | 11.88 Mbytes
Step PotEng Temp Press KinEng Lx Ly Lz Pzz S/CPU Density 
 1190001    2639.8608    351.40136    56.990678    6501.5886    350.38683    350.38683    350.38683     55.77037            0  0.026889889 
 1198001    605.21865    350.92519    1.5156261    6492.7785    350.38683    350.38683    350.38683    2.1186106    1622.0028  0.026889889 
Loop time of 4.93226 on 6 procs for 8000 steps with 6208 atoms

Performance: 1401.385 ns/day, 0.017 hours/ns, 1621.974 timesteps/s
99.7% CPU use with 6 MPI tasks x no OpenMP threads

MPI task timing breakdown:
Section |  min time  |  avg time  |  max time  |%varavg| %total
---------------------------------------------------------------
Pair    | 1.9535     | 3.0475     | 3.385      |  28.4 | 61.79
Bond    | 0.0596     | 0.093152   | 0.1085     |   5.4 |  1.89
Neigh   | 0.33847    | 0.3418     | 0.34419    |   0.3 |  6.93
Comm    | 0.59791    | 0.96467    | 2.2175     |  57.7 | 19.56
Output  | 5.0068e-05 | 7.4665e-05 | 0.00015783 |   0.0 |  0.00
Modify  | 0.28991    | 0.44763    | 0.51988    |  11.4 |  9.08
Other   |            | 0.03739    |            |       |  0.76

Nlocal:        1034.67 ave        1237 max         681 min
Histogram: 1 0 0 0 0 1 1 1 1 1
Nghost:        2002.67 ave        2265 max        1795 min
Histogram: 2 1 0 0 0 0 1 1 0 1
Neighs:        18640.2 ave       22404 max       11146 min
Histogram: 1 0 0 0 0 0 2 1 0 2

Total # of neighbors = 111841
Ave neighs/atom = 18.015625
Ave special neighs/atom = 1.9793814
Neighbor list builds = 317
Dangerous builds = 0

if "${myDensity} > 1.0" then "jump SELF break"

next a
jump SELF loop
variable a loop 1000
change_box all x scale 0.95 y scale 0.95 z scale 0.95 remap
Changing box ...
  orthogonal box = (433.56626 424.80659 424.80659) to (766.43374 775.19341 775.19341)
  orthogonal box = (433.56626 433.56626 424.80659) to (766.43374 766.43374 775.19341)
  orthogonal box = (433.56626 433.56626 433.56626) to (766.43374 766.43374 766.43374)
run 8000
Per MPI rank memory allocation (min/avg/max) = 11.79 | 11.83 | 11.88 Mbytes
Step PotEng Temp Press KinEng Lx Ly Lz Pzz S/CPU Density 
 1198001    2904.5273    350.92519    70.919775    6492.7785    332.86749    332.86749    332.86749    72.231864            0  0.031363043 
 1206001     618.6793    357.27046   -1.1164557    6610.1781    332.86749    332.86749    332.86749  -0.74204106    1519.7854  0.031363043 
Loop time of 5.264 on 6 procs for 8000 steps with 6208 atoms

Performance: 1313.069 ns/day, 0.018 hours/ns, 1519.756 timesteps/s
99.7% CPU use with 6 MPI tasks x no OpenMP threads

MPI task timing breakdown:
Section |  min time  |  avg time  |  max time  |%varavg| %total
---------------------------------------------------------------
Pair    | 2.0121     | 3.1898     | 3.7471     |  31.3 | 60.60
Bond    | 0.063801   | 0.093137   | 0.11298    |   5.0 |  1.77
Neigh   | 0.37351    | 0.37638    | 0.37908    |   0.4 |  7.15
Comm    | 0.46178    | 1.1152     | 2.434      |  59.6 | 21.19
Output  | 0.0024769  | 0.0026672  | 0.0029342  |   0.3 |  0.05
Modify  | 0.30963    | 0.44715    | 0.54032    |  10.6 |  8.49
Other   |            | 0.03966    |            |       |  0.75

Nlocal:        1034.67 ave        1218 max         751 min
Histogram: 1 0 0 1 0 0 1 1 1 1
Nghost:        2057.50 ave        2533 max        1792 min
Histogram: 2 0 1 0 2 0 0 0 0 1
Neighs:        19222.5 ave       22885 max       12257 min
Histogram: 1 0 0 0 0 1 1 1 0 2

Total # of neighbors = 115335
Ave neighs/atom = 18.578447
Ave special neighs/atom = 1.9793814
Neighbor list builds = 327
Dangerous builds = 0

if "${myDensity} > 1.0" then "jump SELF break"

next a
jump SELF loop
variable a loop 1000
change_box all x scale 0.95 y scale 0.95 z scale 0.95 remap
Changing box ...
  orthogonal box = (441.88794 433.56626 433.56626) to (758.11206 766.43374 766.43374)
  orthogonal box = (441.88794 441.88794 433.56626) to (758.11206 758.11206 766.43374)
  orthogonal box = (441.88794 441.88794 441.88794) to (758.11206 758.11206 758.11206)
run 8000
Per MPI rank memory allocation (min/avg/max) = 11.80 | 11.83 | 11.88 Mbytes
Step PotEng Temp Press KinEng Lx Ly Lz Pzz S/CPU Density 
 1206001    2626.4169    357.27046    77.997603    6610.1781    316.22411    316.22411    316.22411    78.258508            0   0.03658031 
 1214001    503.58602     352.6877   -1.1560327    6525.3883    316.22411    316.22411    316.22411   0.19471876    1432.5042   0.03658031 
Loop time of 5.58472 on 6 procs for 8000 steps with 6208 atoms

Performance: 1237.662 ns/day, 0.019 hours/ns, 1432.479 timesteps/s
99.7% CPU use with 6 MPI tasks x no OpenMP threads

MPI task timing breakdown:
Section |  min time  |  avg time  |  max time  |%varavg| %total
---------------------------------------------------------------
Pair    | 2.07       | 3.2829     | 3.9981     |  33.9 | 58.78
Bond    | 0.065999   | 0.09291    | 0.1152     |   5.0 |  1.66
Neigh   | 0.40128    | 0.40452    | 0.40625    |   0.3 |  7.24
Comm    | 0.49568    | 1.3186     | 2.6585     |  58.6 | 23.61
Output  | 4.3154e-05 | 7.5539e-05 | 0.00016093 |   0.0 |  0.00
Modify  | 0.3204     | 0.44541    | 0.54849    |  10.4 |  7.98
Other   |            | 0.04025    |            |       |  0.72

Nlocal:        1034.67 ave        1345 max         702 min
Histogram: 1 0 0 0 1 2 1 0 0 1
Nghost:        2065.50 ave        2471 max        1809 min
Histogram: 2 1 0 1 0 0 0 1 0 1
Neighs:        20816.2 ave       29184 max       11853 min
Histogram: 1 0 0 1 2 0 0 1 0 1

Total # of neighbors = 124897
Ave neighs/atom = 20.118718
Ave special neighs/atom = 1.9793814
Neighbor list builds = 324
Dangerous builds = 0

if "${myDensity} > 1.0" then "jump SELF break"

next a
jump SELF loop
variable a loop 1000
change_box all x scale 0.95 y scale 0.95 z scale 0.95 remap
Changing box ...
  orthogonal box = (449.79355 441.88794 441.88794) to (750.20645 758.11206 758.11206)
  orthogonal box = (449.79355 449.79355 441.88794) to (750.20645 750.20645 758.11206)
  orthogonal box = (449.79355 449.79355 449.79355) to (750.20645 750.20645 750.20645)
run 8000
Per MPI rank memory allocation (min/avg/max) = 11.80 | 11.83 | 11.88 Mbytes
Step PotEng Temp Press KinEng Lx Ly Lz Pzz S/CPU Density 
 1214001    2552.9113     352.6877    92.760831    6525.3883    300.41291    300.41291    300.41291    92.831716            0  0.042665473 
 1222001    522.44096    345.68904   0.79522639       6395.9    300.41291    300.41291    300.41291   0.97289853    1251.3391  0.042665473 
Loop time of 6.39325 on 6 procs for 8000 steps with 6208 atoms

Performance: 1081.141 ns/day, 0.022 hours/ns, 1251.321 timesteps/s
99.7% CPU use with 6 MPI tasks x no OpenMP threads

MPI task timing breakdown:
Section |  min time  |  avg time  |  max time  |%varavg| %total
---------------------------------------------------------------
Pair    | 2.1155     | 3.5299     | 4.7597     |  44.7 | 55.21
Bond    | 0.063776   | 0.092663   | 0.11841    |   5.7 |  1.45
Neigh   | 0.46002    | 0.46149    | 0.46261    |   0.1 |  7.22
Comm    | 0.46515    | 1.8182     | 3.3737     |  68.0 | 28.44
Output  | 4.1962e-05 | 7.7128e-05 | 0.00016785 |   0.0 |  0.00
Modify  | 0.30667    | 0.44458    | 0.5635     |  12.3 |  6.95
Other   |            | 0.04633    |            |       |  0.72

Nlocal:        1034.67 ave        1223 max         753 min
Histogram: 1 0 1 0 0 0 2 0 0 2
Nghost:        2240.17 ave        2700 max        1911 min
Histogram: 2 1 0 0 1 0 0 0 1 1
Neighs:        21782.2 ave       26731 max       14368 min
Histogram: 1 0 0 0 2 0 0 1 0 2

Total # of neighbors = 130693
Ave neighs/atom = 21.052352
Ave special neighs/atom = 1.9793814
Neighbor list builds = 319
Dangerous builds = 0

if "${myDensity} > 1.0" then "jump SELF break"

next a
jump SELF loop
variable a loop 1000
change_box all x scale 0.95 y scale 0.95 z scale 0.95 remap
Changing box ...
  orthogonal box = (457.30387 449.79355 449.79355) to (742.69613 750.20645 750.20645)
  orthogonal box = (457.30387 457.30387 449.79355) to (742.69613 742.69613 750.20645)
  orthogonal box = (457.30387 457.30387 457.30387) to (742.69613 742.69613 742.69613)
run 8000
Per MPI rank memory allocation (min/avg/max) = 11.80 | 11.83 | 11.88 Mbytes
Step PotEng Temp Press KinEng Lx Ly Lz Pzz S/CPU Density 
 1222001    2698.7277    345.68904    109.14323       6395.9    285.39226    285.39226    285.39226    109.83714            0  0.049762908 
 1230001    478.69234    353.14947  0.046311827     6533.932    285.39226    285.39226    285.39226  -0.76489983    1342.7217  0.049762908 
Loop time of 5.95816 on 6 procs for 8000 steps with 6208 atoms

Performance: 1160.089 ns/day, 0.021 hours/ns, 1342.696 timesteps/s
99.7% CPU use with 6 MPI tasks x no OpenMP threads

MPI task timing breakdown:
Section |  min time  |  avg time  |  max time  |%varavg| %total
---------------------------------------------------------------
Pair    | 2.5358     | 3.6563     | 4.212      |  31.3 | 61.37
Bond    | 0.072045   | 0.09336    | 0.10676    |   4.0 |  1.57
Neigh   | 0.45339    | 0.45556    | 0.45738    |   0.2 |  7.65
Comm    | 0.75563    | 1.2713     | 2.4912     |  56.8 | 21.34
Output  | 4.2915e-05 | 6.5962e-05 | 0.00016403 |   0.0 |  0.00
Modify  | 0.3448     | 0.44666    | 0.50721    |   8.5 |  7.50
Other   |            | 0.03485    |            |       |  0.58

Nlocal:        1034.67 ave        1161 max         880 min
Histogram: 1 0 1 1 0 0 0 1 0 2
Nghost:        2484.83 ave        2904 max        2005 min
Histogram: 1 0 0 1 1 1 0 0 1 1
Neighs:        22580.2 ave       27765 max       17163 min
Histogram: 1 1 0 0 0 0 3 0 0 1

Total # of neighbors = 135481
Ave neighs/atom = 21.823615
Ave special neighs/atom = 1.9793814
Neighbor list builds = 328
Dangerous builds = 0

if "${myDensity} > 1.0" then "jump SELF break"

next a
jump SELF loop
variable a loop 1000
change_box all x scale 0.95 y scale 0.95 z scale 0.95 remap
Changing box ...
  orthogonal box = (464.43868 457.30387 457.30387) to (735.56132 742.69613 742.69613)
  orthogonal box = (464.43868 464.43868 457.30387) to (735.56132 735.56132 742.69613)
  orthogonal box = (464.43868 464.43868 464.43868) to (735.56132 735.56132 735.56132)
run 8000
Per MPI rank memory allocation (min/avg/max) = 11.80 | 11.84 | 11.89 Mbytes
Step PotEng Temp Press KinEng Lx Ly Lz Pzz S/CPU Density 
 1230001    2613.4522    353.14947    127.22629     6533.932    271.12265    271.12265    271.12265    125.78729            0  0.058041006 
 1238001    453.93122    347.89906   -3.4977194    6436.7894    271.12265    271.12265    271.12265   -3.3870721    1266.8517  0.058041006 
Loop time of 6.31496 on 6 procs for 8000 steps with 6208 atoms

Performance: 1094.543 ns/day, 0.022 hours/ns, 1266.832 timesteps/s
99.5% CPU use with 6 MPI tasks x no OpenMP threads

MPI task timing breakdown:
Section |  min time  |  avg time  |  max time  |%varavg| %total
---------------------------------------------------------------
Pair    | 2.8845     | 3.7844     | 4.3841     |  31.1 | 59.93
Bond    | 0.07433    | 0.094361   | 0.11164    |   4.5 |  1.49
Neigh   | 0.48539    | 0.48791    | 0.49031    |   0.3 |  7.73
Comm    | 0.87402    | 1.4614     | 2.4531     |  53.8 | 23.14
Output  | 4.1962e-05 | 7.081e-05  | 0.00015306 |   0.0 |  0.00
Modify  | 0.35493    | 0.44756    | 0.52818    |   9.2 |  7.09
Other   |            | 0.03932    |            |       |  0.62

Nlocal:        1034.67 ave        1287 max         821 min
Histogram: 1 1 1 0 1 0 0 0 1 1
Nghost:        2758.67 ave        3655 max        2066 min
Histogram: 1 1 0 2 0 0 0 1 0 1
Neighs:        23746.0 ave       28689 max       19695 min
Histogram: 2 1 0 0 0 1 0 0 1 1

Total # of neighbors = 142476
Ave neighs/atom = 22.950387
Ave special neighs/atom = 1.9793814
Neighbor list builds = 329
Dangerous builds = 0

if "${myDensity} > 1.0" then "jump SELF break"

next a
jump SELF loop
variable a loop 1000
change_box all x scale 0.95 y scale 0.95 z scale 0.95 remap
Changing box ...
  orthogonal box = (471.21674 464.43868 464.43868) to (728.78326 735.56132 735.56132)
  orthogonal box = (471.21674 471.21674 464.43868) to (728.78326 728.78326 735.56132)
  orthogonal box = (471.21674 471.21674 471.21674) to (728.78326 728.78326 728.78326)
run 8000
Per MPI rank memory allocation (min/avg/max) = 11.81 | 11.84 | 11.89 Mbytes
Step PotEng Temp Press KinEng Lx Ly Lz Pzz S/CPU Density 
 1238001    2471.4761    347.89906    146.02381    6436.7894    257.56652    257.56652    257.56652    147.60606            0  0.067696173 
 1246001    450.06437    348.21286   -1.1166489    6442.5953    257.56652    257.56652    257.56652   -3.0880749    1221.6055  0.067696173 
Loop time of 6.54885 on 6 procs for 8000 steps with 6208 atoms

Performance: 1055.452 ns/day, 0.023 hours/ns, 1221.588 timesteps/s
99.7% CPU use with 6 MPI tasks x no OpenMP threads

MPI task timing breakdown:
Section |  min time  |  avg time  |  max time  |%varavg| %total
---------------------------------------------------------------
Pair    | 3.1043     | 3.8847     | 4.8235     |  31.0 | 59.32
Bond    | 0.071768   | 0.093212   | 0.11855    |   5.1 |  1.42
Neigh   | 0.49078    | 0.49345    | 0.49625    |   0.3 |  7.53
Comm    | 0.52632    | 1.5859     | 2.4707     |  52.7 | 24.22
Output  | 4.4107e-05 | 7.3036e-05 | 0.00015998 |   0.0 |  0.00
Modify  | 0.34177    | 0.44492    | 0.56136    |  10.9 |  6.79
Other   |            | 0.04665    |            |       |  0.71

Nlocal:        1034.67 ave        1345 max         684 min
Histogram: 1 0 0 1 2 0 0 0 1 1
Nghost:        2963.00 ave        3996 max        2134 min
Histogram: 1 0 1 1 1 1 0 0 0 1
Neighs:        23623.8 ave       30318 max       15552 min
Histogram: 1 0 1 0 1 0 0 1 1 1

Total # of neighbors = 141743
Ave neighs/atom = 22.832313
Ave special neighs/atom = 1.9793814
Neighbor list builds = 318
Dangerous builds = 0

if "${myDensity} > 1.0" then "jump SELF break"

next a
jump SELF loop
variable a loop 1000
change_box all x scale 0.95 y scale 0.95 z scale 0.95 remap
Changing box ...
  orthogonal box = (477.65590 471.21674 471.21674) to (722.34410 728.78326 728.78326)
  orthogonal box = (477.65590 477.65590 471.21674) to (722.34410 722.34410 728.78326)
  orthogonal box = (477.65590 477.65590 477.65590) to (722.34410 722.34410 722.34410)
run 8000
Per MPI rank memory allocation (min/avg/max) = 11.81 | 11.84 | 11.89 Mbytes
Step PotEng Temp Press KinEng Lx Ly Lz Pzz S/CPU Density 
 1246001    2555.7361    348.21286    172.28937    6442.5953    244.68819    244.68819    244.68819    171.32127            0  0.078957484 
 1254001    402.84133    352.91052  -0.44071929    6529.5109    244.68819    244.68819    244.68819   -1.9962196    1215.4949  0.078957484 
Loop time of 6.58177 on 6 procs for 8000 steps with 6208 atoms

Performance: 1050.173 ns/day, 0.023 hours/ns, 1215.478 timesteps/s
99.6% CPU use with 6 MPI tasks x no OpenMP threads

MPI task timing breakdown:
Section |  min time  |  avg time  |  max time  |%varavg| %total
---------------------------------------------------------------
Pair    | 2.962      | 3.9774     | 4.7216     |  32.7 | 60.43
Bond    | 0.070903   | 0.093277   | 0.11557    |   4.9 |  1.42
Neigh   | 0.52209    | 0.52359    | 0.52588    |   0.2 |  7.96
Comm    | 0.64825    | 1.5        | 2.6219     |  58.1 | 22.79
Output  | 3.6001e-05 | 5.9843e-05 | 0.00013399 |   0.0 |  0.00
Modify  | 0.33739    | 0.44375    | 0.54486    |  10.4 |  6.74
Other   |            | 0.04367    |            |       |  0.66

Nlocal:        1034.67 ave        1261 max         795 min
Histogram: 1 0 1 0 1 0 1 1 0 1
Nghost:        3275.67 ave        4043 max        2816 min
Histogram: 2 0 1 0 1 1 0 0 0 1
Neighs:        24910.7 ave       28069 max       17267 min
Histogram: 1 0 0 1 0 0 0 0 0 4

Total # of neighbors = 149464
Ave neighs/atom = 24.076031
Ave special neighs/atom = 1.9793814
Neighbor list builds = 323
Dangerous builds = 0

if "${myDensity} > 1.0" then "jump SELF break"

next a
jump SELF loop
variable a loop 1000
change_box all x scale 0.95 y scale 0.95 z scale 0.95 remap
Changing box ...
  orthogonal box = (483.77311 477.65590 477.65590) to (716.22689 722.34410 722.34410)
  orthogonal box = (483.77311 483.77311 477.65590) to (716.22689 716.22689 722.34410)
  orthogonal box = (483.77311 483.77311 483.77311) to (716.22689 716.22689 716.22689)
run 8000
Per MPI rank memory allocation (min/avg/max) = 11.82 | 11.85 | 11.90 Mbytes
Step PotEng Temp Press KinEng Lx Ly Lz Pzz S/CPU Density 
 1254001    2539.0633    352.91052    202.72574    6529.5109    232.45378    232.45378    232.45378    202.32083            0  0.092092123 
 1262001    415.33107    348.75742   -3.3131906    6452.6707    232.45378    232.45378    232.45378   -3.7450459    1183.9433  0.092092123 
Loop time of 6.75717 on 6 procs for 8000 steps with 6208 atoms

Performance: 1022.913 ns/day, 0.023 hours/ns, 1183.927 timesteps/s
99.5% CPU use with 6 MPI tasks x no OpenMP threads

MPI task timing breakdown:
Section |  min time  |  avg time  |  max time  |%varavg| %total
---------------------------------------------------------------
Pair    | 3.4528     | 4.2672     | 4.8384     |  23.0 | 63.15
Bond    | 0.07469    | 0.093792   | 0.11154    |   4.0 |  1.39
Neigh   | 0.54867    | 0.54973    | 0.55115    |   0.1 |  8.14
Comm    | 0.81366    | 1.363      | 2.2699     |  44.4 | 20.17
Output  | 3.8862e-05 | 6.4532e-05 | 0.0001359  |   0.0 |  0.00
Modify  | 0.35961    | 0.44464    | 0.52053    |   7.9 |  6.58
Other   |            | 0.03875    |            |       |  0.57

Nlocal:        1034.67 ave        1265 max         797 min
Histogram: 1 0 1 0 1 0 1 1 0 1
Nghost:        3764.50 ave        4073 max        3373 min
Histogram: 2 0 0 0 0 0 2 0 0 2
Neighs:        26572.2 ave       31885 max       20772 min
Histogram: 1 1 0 0 0 1 0 2 0 1

Total # of neighbors = 159433
Ave neighs/atom = 25.681862
Ave special neighs/atom = 1.9793814
Neighbor list builds = 324
Dangerous builds = 0

if "${myDensity} > 1.0" then "jump SELF break"

next a
jump SELF loop
variable a loop 1000
change_box all x scale 0.95 y scale 0.95 z scale 0.95 remap
Changing box ...
  orthogonal box = (489.58445 483.77311 483.77311) to (710.41555 716.22689 716.22689)
  orthogonal box = (489.58445 489.58445 483.77311) to (710.41555 710.41555 716.22689)
  orthogonal box = (489.58445 489.58445 489.58445) to (710.41555 710.41555 710.41555)
run 8000
Per MPI rank memory allocation (min/avg/max) = 11.82 | 11.85 | 11.90 Mbytes
Step PotEng Temp Press KinEng Lx Ly Lz Pzz S/CPU Density 
 1262001    2491.3623    348.75742    234.18355    6452.6707    220.83109    220.83109    220.83109    233.79581            0   0.10741172 
 1270001    219.86638     355.8273   0.14107273    6583.4769    220.83109    220.83109    220.83109    1.1975948    992.11331   0.10741172 
Loop time of 8.06369 on 6 procs for 8000 steps with 6208 atoms

Performance: 857.175 ns/day, 0.028 hours/ns, 992.101 timesteps/s
99.6% CPU use with 6 MPI tasks x no OpenMP threads

MPI task timing breakdown:
Section |  min time  |  avg time  |  max time  |%varavg| %total
---------------------------------------------------------------
Pair    | 3.3065     | 4.5332     | 5.9131     |  46.3 | 56.22
Bond    | 0.068125   | 0.093696   | 0.11873    |   5.2 |  1.16
Neigh   | 0.64745    | 0.64874    | 0.65047    |   0.1 |  8.05
Comm    | 0.90007    | 2.2965     | 3.6506     |  69.2 | 28.48
Output  | 3.6001e-05 | 6.3856e-05 | 0.00015402 |   0.0 |  0.00
Modify  | 0.32888    | 0.44497    | 0.55574    |  10.8 |  5.52
Other   |            | 0.04653    |            |       |  0.58

Nlocal:        1034.67 ave        1347 max         659 min
Histogram: 1 0 1 0 0 1 0 2 0 1
Nghost:        4157.67 ave        4664 max        3469 min
Histogram: 1 0 1 0 0 0 1 2 0 1
Neighs:        28866.3 ave       39705 max       16566 min
Histogram: 1 0 2 0 0 0 0 1 1 1

Total # of neighbors = 173198
Ave neighs/atom = 27.899162
Ave special neighs/atom = 1.9793814
Neighbor list builds = 328
Dangerous builds = 0

if "${myDensity} > 1.0" then "jump SELF break"

next a
jump SELF loop
variable a loop 1000
change_box all x scale 0.95 y scale 0.95 z scale 0.95 remap
Changing box ...
  orthogonal box = (495.10523 489.58445 489.58445) to (704.89477 710.41555 710.41555)
  orthogonal box = (495.10523 495.10523 489.58445) to (704.89477 704.89477 710.41555)
  orthogonal box = (495.10523 495.10523 495.10523) to (704.89477 704.89477 704.89477)
run 8000
Per MPI rank memory allocation (min/avg/max) = 11.83 | 11.86 | 11.91 Mbytes
Step PotEng Temp Press KinEng Lx Ly Lz Pzz S/CPU Density 
 1270001    2384.1233     355.8273    278.48111    6583.4769    209.78954    209.78954    209.78954    280.99672            0   0.12527974 
 1278001    243.27069     347.5691    2.1185084    6430.6846    209.78954    209.78954    209.78954    5.3672616    902.04776   0.12527974 
Loop time of 8.8688 on 6 procs for 8000 steps with 6208 atoms

Performance: 779.361 ns/day, 0.031 hours/ns, 902.038 timesteps/s
99.2% CPU use with 6 MPI tasks x no OpenMP threads

MPI task timing breakdown:
Section |  min time  |  avg time  |  max time  |%varavg| %total
---------------------------------------------------------------
Pair    | 3.3278     | 4.8927     | 6.4093     |  44.4 | 55.17
Bond    | 0.069023   | 0.094018   | 0.11162    |   4.7 |  1.06
Neigh   | 0.76816    | 0.77292    | 0.77792    |   0.4 |  8.71
Comm    | 1.0687     | 2.6083     | 4.2948     |  64.2 | 29.41
Output  | 4.4107e-05 | 7.2479e-05 | 0.00015807 |   0.0 |  0.00
Modify  | 0.33214    | 0.44642    | 0.52026    |   9.7 |  5.03
Other   |            | 0.05435    |            |       |  0.61

Nlocal:        1034.67 ave        1252 max         833 min
Histogram: 1 1 0 0 1 0 2 0 0 1
Nghost:        4525.33 ave        4863 max        4057 min
Histogram: 1 0 0 0 1 1 1 0 1 1
Neighs:        30523.0 ave       40119 max       22744 min
Histogram: 1 1 0 2 0 0 0 0 1 1

Total # of neighbors = 183138
Ave neighs/atom = 29.500322
Ave special neighs/atom = 1.9793814
Neighbor list builds = 331
Dangerous builds = 0

if "${myDensity} > 1.0" then "jump SELF break"

next a
jump SELF loop
variable a loop 1000
change_box all x scale 0.95 y scale 0.95 z scale 0.95 remap
Changing box ...
  orthogonal box = (500.34997 495.10523 495.10523) to (699.65003 704.89477 704.89477)
  orthogonal box = (500.34997 500.34997 495.10523) to (699.65003 699.65003 704.89477)
  orthogonal box = (500.34997 500.34997 500.34997) to (699.65003 699.65003 699.65003)
run 8000
Per MPI rank memory allocation (min/avg/max) = 11.83 | 11.86 | 11.92 Mbytes
Step PotEng Temp Press KinEng Lx Ly Lz Pzz S/CPU Density 
 1278001    2472.9486     347.5691    328.31324    6430.6846    199.30006    199.30006    199.30006    328.60866            0   0.14612013 
 1286001    222.51283    356.96296  -0.54653062    6604.4886    199.30006    199.30006    199.30006   -1.7596792    945.80791   0.14612013 
Loop time of 8.45848 on 6 procs for 8000 steps with 6208 atoms

Performance: 817.168 ns/day, 0.029 hours/ns, 945.797 timesteps/s
99.5% CPU use with 6 MPI tasks x no OpenMP threads

MPI task timing breakdown:
Section |  min time  |  avg time  |  max time  |%varavg| %total
---------------------------------------------------------------
Pair    | 3.8525     | 4.9924     | 6.1065     |  38.5 | 59.02
Bond    | 0.079373   | 0.094183   | 0.10897    |   3.9 |  1.11
Neigh   | 0.73444    | 0.73598    | 0.73826    |   0.2 |  8.70
Comm    | 1.0418     | 2.1452     | 3.3496     |  61.5 | 25.36
Output  | 4.4107e-05 | 6.5049e-05 | 0.00013614 |   0.0 |  0.00
Modify  | 0.38283    | 0.44442    | 0.50908    |   7.5 |  5.25
Other   |            | 0.04614    |            |       |  0.55

Nlocal:        1034.67 ave        1224 max         826 min
Histogram: 1 1 0 0 1 0 0 1 1 1
Nghost:        4918.33 ave        5176 max        4757 min
Histogram: 2 1 1 0 0 0 0 0 1 1
Neighs:        30396.5 ave       37177 max       20939 min
Histogram: 1 1 0 0 0 0 1 1 1 1

Total # of neighbors = 182379
Ave neighs/atom = 29.378061
Ave special neighs/atom = 1.9793814
Neighbor list builds = 327
Dangerous builds = 0

if "${myDensity} > 1.0" then "jump SELF break"

next a
jump SELF loop
variable a loop 1000
change_box all x scale 0.95 y scale 0.95 z scale 0.95 remap
Changing box ...
  orthogonal box = (505.33247 500.34997 500.34997) to (694.66753 699.65003 699.65003)
  orthogonal box = (505.33247 505.33247 500.34997) to (694.66753 694.66753 699.65003)
  orthogonal box = (505.33247 505.33247 505.33247) to (694.66753 694.66753 694.66753)
run 8000
Per MPI rank memory allocation (min/avg/max) = 11.84 | 11.87 | 11.92 Mbytes
Step PotEng Temp Press KinEng Lx Ly Lz Pzz S/CPU Density 
 1286001    2359.9745    356.96296    376.20476    6604.4886    189.33506    189.33506    189.33506    379.95337            0   0.17042732 
 1294001    197.74584    351.50365   0.83239415    6503.4811    189.33506    189.33506    189.33506    2.5268965    878.54105   0.17042732 
Loop time of 9.1061 on 6 procs for 8000 steps with 6208 atoms

Performance: 759.051 ns/day, 0.032 hours/ns, 878.532 timesteps/s
99.6% CPU use with 6 MPI tasks x no OpenMP threads

MPI task timing breakdown:
Section |  min time  |  avg time  |  max time  |%varavg| %total
---------------------------------------------------------------
Pair    | 3.9095     | 5.3749     | 6.6441     |  44.3 | 59.03
Bond    | 0.076989   | 0.095252   | 0.11086    |   4.1 |  1.05
Neigh   | 0.79746    | 0.79891    | 0.80093    |   0.1 |  8.77
Comm    | 1.0038     | 2.3406     | 3.8926     |  70.0 | 25.70
Output  | 4.3869e-05 | 6.5724e-05 | 0.00012898 |   0.0 |  0.00
Modify  | 0.36773    | 0.44521    | 0.51407    |   8.2 |  4.89
Other   |            | 0.05118    |            |       |  0.56

Nlocal:        1034.67 ave        1164 max         893 min
Histogram: 2 0 0 0 0 1 1 0 1 1
Nghost:        5284.33 ave        5690 max        4956 min
Histogram: 1 0 1 0 2 1 0 0 0 1
Neighs:        33479.2 ave       38686 max       26766 min
Histogram: 1 0 0 0 2 0 0 2 0 1

Total # of neighbors = 200875
Ave neighs/atom = 32.357442
Ave special neighs/atom = 1.9793814
Neighbor list builds = 324
Dangerous builds = 0

if "${myDensity} > 1.0" then "jump SELF break"

next a
jump SELF loop
variable a loop 1000
change_box all x scale 0.95 y scale 0.95 z scale 0.95 remap
Changing box ...
  orthogonal box = (510.06585 505.33247 505.33247) to (689.93415 694.66753 694.66753)
  orthogonal box = (510.06585 510.06585 505.33247) to (689.93415 689.93415 694.66753)
  orthogonal box = (510.06585 510.06585 510.06585) to (689.93415 689.93415 689.93415)
run 8000
Per MPI rank memory allocation (min/avg/max) = 11.84 | 11.87 | 11.93 Mbytes
Step PotEng Temp Press KinEng Lx Ly Lz Pzz S/CPU Density 
 1294001    2391.1706    351.50365    445.50213    6503.4811     179.8683     179.8683     179.8683    449.61909            0   0.19877804 
 1302001    158.06233    355.35034    4.5181907    6574.6523     179.8683     179.8683     179.8683   -4.1518939    817.09451   0.19877804 
Loop time of 9.79088 on 6 procs for 8000 steps with 6208 atoms

Performance: 705.963 ns/day, 0.034 hours/ns, 817.087 timesteps/s
99.5% CPU use with 6 MPI tasks x no OpenMP threads

MPI task timing breakdown:
Section |  min time  |  avg time  |  max time  |%varavg| %total
---------------------------------------------------------------
Pair    | 4.3547     | 5.7055     | 7.172      |  38.9 | 58.27
Bond    | 0.08064    | 0.095536   | 0.10737    |   2.9 |  0.98
Neigh   | 0.85093    | 0.85214    | 0.85336    |   0.1 |  8.70
Comm    | 1.1949     | 2.6389     | 4.0503     |  58.6 | 26.95
Output  | 0.002496   | 0.0026577  | 0.002903   |   0.3 |  0.03
Modify  | 0.38672    | 0.44722    | 0.49477    |   5.4 |  4.57
Other   |            | 0.04893    |            |       |  0.50

Nlocal:        1034.67 ave        1159 max         864 min
Histogram: 1 0 0 0 0 1 3 0 0 1
Nghost:        5596.83 ave        5812 max        5284 min
Histogram: 1 1 0 0 0 0 1 0 1 2
Neighs:        36264.0 ave       47345 max       24797 min
Histogram: 1 0 0 2 1 0 0 0 1 1

Total # of neighbors = 217584
Ave neighs/atom = 35.048969
Ave special neighs/atom = 1.9793814
Neighbor list builds = 325
Dangerous builds = 0

if "${myDensity} > 1.0" then "jump SELF break"

next a
jump SELF loop
variable a loop 1000
change_box all x scale 0.95 y scale 0.95 z scale 0.95 remap
Changing box ...
  orthogonal box = (514.56256 510.06585 510.06585) to (685.43744 689.93415 689.93415)
  orthogonal box = (514.56256 514.56256 510.06585) to (685.43744 685.43744 689.93415)
  orthogonal box = (514.56256 514.56256 514.56256) to (685.43744 685.43744 685.43744)
run 8000
Per MPI rank memory allocation (min/avg/max) = 11.84 | 11.88 | 11.93 Mbytes
Step PotEng Temp Press KinEng Lx Ly Lz Pzz S/CPU Density 
 1302001    2396.3313    355.35034    524.20406    6574.6523    170.87489    170.87489    170.87489    514.30061            0   0.23184492 
 1310001    120.59854    353.15178   -4.7188632    6533.9747    170.87489    170.87489    170.87489   -6.1430251    771.61125   0.23184492 
Loop time of 10.368 on 6 procs for 8000 steps with 6208 atoms

Performance: 666.665 ns/day, 0.036 hours/ns, 771.603 timesteps/s
99.5% CPU use with 6 MPI tasks x no OpenMP threads

MPI task timing breakdown:
Section |  min time  |  avg time  |  max time  |%varavg| %total
---------------------------------------------------------------
Pair    | 3.823      | 6.1622     | 7.6947     |  51.7 | 59.43
Bond    | 0.071105   | 0.096168   | 0.11022    |   4.0 |  0.93
Neigh   | 0.94755    | 0.94881    | 0.95054    |   0.1 |  9.15
Comm    | 1.1228     | 2.6591     | 5.1019     |  81.5 | 25.65
Output  | 3.9816e-05 | 6.9022e-05 | 0.00014687 |   0.0 |  0.00
Modify  | 0.33982    | 0.44846    | 0.50633    |   8.0 |  4.33
Other   |            | 0.05318    |            |       |  0.51

Nlocal:        1034.67 ave        1185 max         758 min
Histogram: 1 0 0 0 1 0 1 0 1 2
Nghost:        5933.00 ave        6335 max        5631 min
Histogram: 2 0 0 1 1 0 0 1 0 1
Neighs:        37385.3 ave       46380 max       23856 min
Histogram: 1 0 1 0 0 1 0 0 1 2

Total # of neighbors = 224312
Ave neighs/atom = 36.132732
Ave special neighs/atom = 1.9793814
Neighbor list builds = 328
Dangerous builds = 0

if "${myDensity} > 1.0" then "jump SELF break"

next a
jump SELF loop
variable a loop 1000
change_box all x scale 0.95 y scale 0.95 z scale 0.95 remap
Changing box ...
  orthogonal box = (518.83443 514.56256 514.56256) to (681.16557 685.43744 685.43744)
  orthogonal box = (518.83443 518.83443 514.56256) to (681.16557 681.16557 685.43744)
  orthogonal box = (518.83443 518.83443 518.83443) to (681.16557 681.16557 681.16557)
run 8000
Per MPI rank memory allocation (min/avg/max) = 11.85 | 11.88 | 11.93 Mbytes
Step PotEng Temp Press KinEng Lx Ly Lz Pzz S/CPU Density 
 1310001    2251.7558    353.15178    599.80083    6533.9747    162.33115    162.33115    162.33115    601.86699            0   0.27041251 
 1318001    22.962962    354.50964   -3.2314146    6559.0976    162.33115    162.33115    162.33115   -6.1518056    729.63456   0.27041251 
Loop time of 10.9645 on 6 procs for 8000 steps with 6208 atoms

Performance: 630.399 ns/day, 0.038 hours/ns, 729.628 timesteps/s
99.4% CPU use with 6 MPI tasks x no OpenMP threads

MPI task timing breakdown:
Section |  min time  |  avg time  |  max time  |%varavg| %total
---------------------------------------------------------------
Pair    | 4.833      | 6.6562     | 8.0514     |  46.3 | 60.71
Bond    | 0.076474   | 0.098145   | 0.11366    |   3.8 |  0.90
Neigh   | 1.0422     | 1.0447     | 1.048      |   0.2 |  9.53
Comm    | 1.1915     | 2.6523     | 4.5779     |  76.4 | 24.19
Output  | 6.9857e-05 | 9.3778e-05 | 0.00015903 |   0.0 |  0.00
Modify  | 0.35712    | 0.45058    | 0.51824    |   7.7 |  4.11
Other   |            | 0.06243    |            |       |  0.57

Nlocal:        1034.67 ave        1177 max         812 min
Histogram: 1 0 0 0 0 1 2 0 1 1
Nghost:        6564.33 ave        6883 max        6378 min
Histogram: 2 0 1 1 0 1 0 0 0 1
Neighs:        41889.8 ave       49614 max       30770 min
Histogram: 1 0 1 0 0 0 0 1 2 1

Total # of neighbors = 251339
Ave neighs/atom = 40.486308
Ave special neighs/atom = 1.9793814
Neighbor list builds = 321
Dangerous builds = 0

if "${myDensity} > 1.0" then "jump SELF break"

next a
jump SELF loop
variable a loop 1000
change_box all x scale 0.95 y scale 0.95 z scale 0.95 remap
Changing box ...
  orthogonal box = (522.89271 518.83443 518.83443) to (677.10729 681.16557 681.16557)
  orthogonal box = (522.89271 522.89271 518.83443) to (677.10729 677.10729 681.16557)
  orthogonal box = (522.89271 522.89271 522.89271) to (677.10729 677.10729 677.10729)
run 8000
Per MPI rank memory allocation (min/avg/max) = 11.85 | 11.89 | 11.94 Mbytes
Step PotEng Temp Press KinEng Lx Ly Lz Pzz S/CPU Density 
 1318001     2175.679    354.50964    703.07704    6559.0976    154.21459    154.21459    154.21459    698.82588            0   0.31539584 
 1326001   -36.125743     349.7671   -5.3041085    6471.3516    154.21459    154.21459    154.21459   -2.2908974    705.16778   0.31539584 
Loop time of 11.3449 on 6 procs for 8000 steps with 6208 atoms

Performance: 609.259 ns/day, 0.039 hours/ns, 705.160 timesteps/s
99.2% CPU use with 6 MPI tasks x no OpenMP threads

MPI task timing breakdown:
Section |  min time  |  avg time  |  max time  |%varavg| %total
---------------------------------------------------------------
Pair    | 6.085      | 7.2914     | 7.8726     |  21.5 | 64.27
Bond    | 0.085645   | 0.097808   | 0.10702    |   2.3 |  0.86
Neigh   | 1.0883     | 1.09       | 1.0922     |   0.2 |  9.61
Comm    | 1.7265     | 2.3409     | 3.5717     |  39.2 | 20.63
Output  | 4.3869e-05 | 7.2082e-05 | 0.00017786 |   0.0 |  0.00
Modify  | 0.4068     | 0.45385    | 0.48903    |   4.2 |  4.00
Other   |            | 0.07088    |            |       |  0.62

Nlocal:        1034.67 ave        1175 max         902 min
Histogram: 2 0 1 0 0 0 1 0 0 2
Nghost:        7240.17 ave        7699 max        6815 min
Histogram: 1 0 2 0 1 0 0 0 1 1
Neighs:        44618.2 ave       53361 max       37050 min
Histogram: 1 2 0 0 0 1 0 0 0 2

Total # of neighbors = 267709
Ave neighs/atom = 43.123228
Ave special neighs/atom = 1.9793814
Neighbor list builds = 323
Dangerous builds = 0

if "${myDensity} > 1.0" then "jump SELF break"

next a
jump SELF loop
variable a loop 1000
change_box all x scale 0.95 y scale 0.95 z scale 0.95 remap
Changing box ...
  orthogonal box = (526.74807 522.89271 522.89271) to (673.25193 677.10729 677.10729)
  orthogonal box = (526.74807 526.74807 522.89271) to (673.25193 673.25193 677.10729)
  orthogonal box = (526.74807 526.74807 526.74807) to (673.25193 673.25193 673.25193)
run 8000
Per MPI rank memory allocation (min/avg/max) = 11.87 | 11.90 | 11.95 Mbytes
Step PotEng Temp Press KinEng Lx Ly Lz Pzz S/CPU Density 
 1326001    2141.2847     349.7671    827.61472    6471.3516    146.50386    146.50386    146.50386    838.64176            0   0.36786218 
 1334001   -234.34758    351.59808    1.0080704    6505.2282    146.50386    146.50386    146.50386     14.37077    599.64073   0.36786218 
Loop time of 13.3414 on 6 procs for 8000 steps with 6208 atoms

Performance: 518.086 ns/day, 0.046 hours/ns, 599.636 timesteps/s
97.9% CPU use with 6 MPI tasks x no OpenMP threads

MPI task timing breakdown:
Section |  min time  |  avg time  |  max time  |%varavg| %total
---------------------------------------------------------------
Pair    | 6.0559     | 8.0722     | 9.7243     |  41.7 | 60.50
Bond    | 0.081361   | 0.098216   | 0.11501    |   3.9 |  0.74
Neigh   | 1.3216     | 1.323      | 1.324      |   0.1 |  9.92
Comm    | 1.5648     | 3.2603     | 5.3806     |  68.8 | 24.44
Output  | 4.7922e-05 | 7.232e-05  | 0.00015807 |   0.0 |  0.00
Modify  | 0.37506    | 0.45444    | 0.52327    |   7.9 |  3.41
Other   |            | 0.1332     |            |       |  1.00

Nlocal:        1034.67 ave        1194 max         853 min
Histogram: 1 0 1 0 1 1 0 0 0 2
Nghost:        7682.17 ave        7963 max        7381 min
Histogram: 1 0 1 0 1 0 1 1 0 1
Neighs:        50279.3 ave       61630 max       36221 min
Histogram: 1 0 0 0 2 0 1 0 1 1

Total # of neighbors = 301676
Ave neighs/atom = 48.594716
Ave special neighs/atom = 1.9793814
Neighbor list builds = 335
Dangerous builds = 0

if "${myDensity} > 1.0" then "jump SELF break"

next a
jump SELF loop
variable a loop 1000
change_box all x scale 0.95 y scale 0.95 z scale 0.95 remap
Changing box ...
  orthogonal box = (530.41067 526.74807 526.74807) to (669.58933 673.25193 673.25193)
  orthogonal box = (530.41067 530.41067 526.74807) to (669.58933 669.58933 673.25193)
  orthogonal box = (530.41067 530.41067 530.41067) to (669.58933 669.58933 669.58933)
run 8000
Per MPI rank memory allocation (min/avg/max) = 11.87 | 11.90 | 11.96 Mbytes
Step PotEng Temp Press KinEng Lx Ly Lz Pzz S/CPU Density 
 1334001       1988.5    351.59808    973.69278    6505.2282    139.17867    139.17867    139.17867    1003.6091            0   0.42905634 
 1342001   -242.03948    349.70003   -23.673305    6470.1108    139.17867    139.17867    139.17867   -20.772176    573.80568   0.42905634 
Loop time of 13.9421 on 6 procs for 8000 steps with 6208 atoms

Performance: 495.765 ns/day, 0.048 hours/ns, 573.802 timesteps/s
95.9% CPU use with 6 MPI tasks x no OpenMP threads

MPI task timing breakdown:
Section |  min time  |  avg time  |  max time  |%varavg| %total
---------------------------------------------------------------
Pair    | 7.7849     | 8.7807     | 9.7118     |  24.0 | 62.98
Bond    | 0.091619   | 0.10154    | 0.11056    |   2.4 |  0.73
Neigh   | 1.3315     | 1.3327     | 1.3338     |   0.1 |  9.56
Comm    | 2.1187     | 3.0686     | 4.1221     |  42.6 | 22.01
Output  | 4.4107e-05 | 6.4532e-05 | 0.00013685 |   0.0 |  0.00
Modify  | 0.41783    | 0.45653    | 0.48948    |   4.3 |  3.27
Other   |            | 0.202      |            |       |  1.45

Nlocal:        1034.67 ave        1090 max         988 min
Histogram: 1 1 1 0 1 0 0 0 0 2
Nghost:        8214.17 ave        8349 max        8096 min
Histogram: 1 0 1 0 1 2 0 0 0 1
Neighs:        52833.5 ave       57971 max       47604 min
Histogram: 1 1 1 0 0 0 0 2 0 1

Total # of neighbors = 317001
Ave neighs/atom = 51.063305
Ave special neighs/atom = 1.9793814
Neighbor list builds = 321
Dangerous builds = 0

if "${myDensity} > 1.0" then "jump SELF break"

next a
jump SELF loop
variable a loop 1000
change_box all x scale 0.95 y scale 0.95 z scale 0.95 remap
Changing box ...
  orthogonal box = (533.89013 530.41067 530.41067) to (666.10987 669.58933 669.58933)
  orthogonal box = (533.89013 533.89013 530.41067) to (666.10987 666.10987 669.58933)
  orthogonal box = (533.89013 533.89013 533.89013) to (666.10987 666.10987 666.10987)
run 8000
Per MPI rank memory allocation (min/avg/max) = 11.88 | 11.91 | 11.96 Mbytes
Step PotEng Temp Press KinEng Lx Ly Lz Pzz S/CPU Density 
 1342001    1840.5954    349.70003    1108.8789    6470.1108    132.21973    132.21973    132.21973    1115.1204            0    0.5004302 
 1350001   -559.09334     356.1142   -13.951522     6588.785    132.21973    132.21973    132.21973   -16.168583    556.17063    0.5004302 
Loop time of 14.3842 on 6 procs for 8000 steps with 6208 atoms

Performance: 480.528 ns/day, 0.050 hours/ns, 556.166 timesteps/s
95.8% CPU use with 6 MPI tasks x no OpenMP threads

MPI task timing breakdown:
Section |  min time  |  avg time  |  max time  |%varavg| %total
---------------------------------------------------------------
Pair    | 9.0258     | 9.767      | 10.47      |  17.1 | 67.90
Bond    | 0.096803   | 0.10274    | 0.10864    |   1.4 |  0.71
Neigh   | 1.2618     | 1.2631     | 1.2642     |   0.1 |  8.78
Comm    | 1.8544     | 2.5714     | 3.3685     |  35.2 | 17.88
Output  | 4.6015e-05 | 6.8506e-05 | 0.00016403 |   0.0 |  0.00
Modify  | 0.43317    | 0.45728    | 0.48342    |   2.7 |  3.18
Other   |            | 0.2226     |            |       |  1.55

Nlocal:        1034.67 ave        1069 max         954 min
Histogram: 1 0 0 0 0 0 2 0 0 3
Nghost:        8803.17 ave        8880 max        8675 min
Histogram: 1 0 1 0 0 0 0 1 1 2
Neighs:        60173.3 ave       63818 max       53228 min
Histogram: 1 0 0 1 0 0 0 1 0 3

Total # of neighbors = 361040
Ave neighs/atom = 58.157216
Ave special neighs/atom = 1.9793814
Neighbor list builds = 327
Dangerous builds = 0

if "${myDensity} > 1.0" then "jump SELF break"

next a
jump SELF loop
variable a loop 1000
change_box all x scale 0.95 y scale 0.95 z scale 0.95 remap
Changing box ...
  orthogonal box = (537.19563 533.89013 533.89013) to (662.80437 666.10987 666.10987)
  orthogonal box = (537.19563 537.19563 533.89013) to (662.80437 662.80437 666.10987)
  orthogonal box = (537.19563 537.19563 537.19563) to (662.80437 662.80437 662.80437)
run 8000
Per MPI rank memory allocation (min/avg/max) = 11.88 | 11.92 | 11.97 Mbytes
Step PotEng Temp Press KinEng Lx Ly Lz Pzz S/CPU Density 
 1350001    1613.0928     356.1142     1326.565     6588.785    125.60875    125.60875    125.60875    1317.3235            0   0.58367716 
 1358001   -782.46233    351.72779    3.1196525    6507.6281    125.60875    125.60875    125.60875   -3.3119612    503.40291   0.58367716 
Loop time of 15.8919 on 6 procs for 8000 steps with 6208 atoms

Performance: 434.937 ns/day, 0.055 hours/ns, 503.400 timesteps/s
95.7% CPU use with 6 MPI tasks x no OpenMP threads

MPI task timing breakdown:
Section |  min time  |  avg time  |  max time  |%varavg| %total
---------------------------------------------------------------
Pair    | 10.236     | 11.057     | 11.582     |  13.2 | 69.57
Bond    | 0.097378   | 0.1011     | 0.10954    |   1.3 |  0.64
Neigh   | 1.4102     | 1.412      | 1.4149     |   0.1 |  8.89
Comm    | 2.1021     | 2.6228     | 3.4814     |  28.7 | 16.50
Output  | 4.2915e-05 | 6.2505e-05 | 0.00014687 |   0.0 |  0.00
Modify  | 0.44129    | 0.45977    | 0.47794    |   1.7 |  2.89
Other   |            | 0.2397     |            |       |  1.51

Nlocal:        1034.67 ave        1098 max         928 min
Histogram: 1 0 0 0 1 0 1 1 0 2
Nghost:        9727.17 ave        9878 max        9558 min
Histogram: 1 1 0 0 1 0 0 1 1 1
Neighs:        67957.3 ave       73885 max       58527 min
Histogram: 1 1 0 0 0 0 0 1 1 2

Total # of neighbors = 407744
Ave neighs/atom = 65.680412
Ave special neighs/atom = 1.9793814
Neighbor list builds = 322
Dangerous builds = 0

if "${myDensity} > 1.0" then "jump SELF break"

next a
jump SELF loop
variable a loop 1000
change_box all x scale 0.95 y scale 0.95 z scale 0.95 remap
Changing box ...
  orthogonal box = (540.33585 537.19563 537.19563) to (659.66415 662.80437 662.80437)
  orthogonal box = (540.33585 540.33585 537.19563) to (659.66415 659.66415 662.80437)
  orthogonal box = (540.33585 540.33585 540.33585) to (659.66415 659.66415 659.66415)
run 8000
Per MPI rank memory allocation (min/avg/max) = 11.90 | 11.93 | 11.98 Mbytes
Step PotEng Temp Press KinEng Lx Ly Lz Pzz S/CPU Density 
 1358001    1537.2257    351.72779    1603.3562    6507.6281    119.32831    119.32831    119.32831    1614.8353            0   0.68077231 
 1366001    -940.4225    350.92172    41.371536    6492.7143    119.32831    119.32831    119.32831    41.701904    438.56607   0.68077231 
Loop time of 18.2414 on 6 procs for 8000 steps with 6208 atoms

Performance: 378.919 ns/day, 0.063 hours/ns, 438.563 timesteps/s
95.8% CPU use with 6 MPI tasks x no OpenMP threads

MPI task timing breakdown:
Section |  min time  |  avg time  |  max time  |%varavg| %total
---------------------------------------------------------------
Pair    | 12.142     | 12.713     | 13.15      |   8.5 | 69.69
Bond    | 0.097521   | 0.10307    | 0.10925    |   1.4 |  0.57
Neigh   | 1.6517     | 1.6541     | 1.6559     |   0.1 |  9.07
Comm    | 2.5424     | 3.0478     | 3.5896     |  17.8 | 16.71
Output  | 5.1975e-05 | 7.2638e-05 | 0.00015092 |   0.0 |  0.00
Modify  | 0.45064    | 0.46314    | 0.47524    |   1.2 |  2.54
Other   |            | 0.2604     |            |       |  1.43

Nlocal:        1034.67 ave        1097 max         988 min
Histogram: 2 1 0 0 0 0 1 1 0 1
Nghost:        10439.7 ave       10503 max       10367 min
Histogram: 1 1 0 0 1 0 0 1 1 1
Neighs:        77737.8 ave       83777 max       71213 min
Histogram: 1 0 2 0 0 0 1 0 0 2

Total # of neighbors = 466427
Ave neighs/atom = 75.133215
Ave special neighs/atom = 1.9793814
Neighbor list builds = 328
Dangerous builds = 0

if "${myDensity} > 1.0" then "jump SELF break"

next a
jump SELF loop
variable a loop 1000
change_box all x scale 0.95 y scale 0.95 z scale 0.95 remap
Changing box ...
  orthogonal box = (543.31905 540.33585 540.33585) to (656.68095 659.66415 659.66415)
  orthogonal box = (543.31905 543.31905 540.33585) to (656.68095 656.68095 659.66415)
  orthogonal box = (543.31905 543.31905 543.31905) to (656.68095 656.68095 656.68095)
run 8000
Per MPI rank memory allocation (min/avg/max) = 11.91 | 12.07 | 12.31 Mbytes
Step PotEng Temp Press KinEng Lx Ly Lz Pzz S/CPU Density 
 1366001    1583.8124    350.92172    1957.0397    6492.7143    113.36189    113.36189    113.36189    1962.3039            0   0.79401931 
 1374001   -1490.1606    355.76709    58.198099    6582.3629    113.36189    113.36189    113.36189    68.975617    380.57838   0.79401931 
Loop time of 21.0207 on 6 procs for 8000 steps with 6208 atoms

Performance: 328.818 ns/day, 0.073 hours/ns, 380.576 timesteps/s
95.9% CPU use with 6 MPI tasks x no OpenMP threads

MPI task timing breakdown:
Section |  min time  |  avg time  |  max time  |%varavg| %total
---------------------------------------------------------------
Pair    | 14.049     | 14.759     | 15.543     |  13.4 | 70.21
Bond    | 0.10524    | 0.11025    | 0.11478    |   1.0 |  0.52
Neigh   | 1.9241     | 1.9259     | 1.9289     |   0.1 |  9.16
Comm    | 2.7032     | 3.4775     | 4.2282     |  27.5 | 16.54
Output  | 4.7922e-05 | 6.5962e-05 | 0.00014091 |   0.0 |  0.00
Modify  | 0.45127    | 0.46547    | 0.48195    |   1.4 |  2.21
Other   |            | 0.2828     |            |       |  1.35

Nlocal:        1034.67 ave        1069 max         994 min
Histogram: 1 0 1 0 0 1 1 0 1 1
Nghost:        11455.8 ave       11489 max       11404 min
Histogram: 1 0 0 0 1 1 0 1 0 2
Neighs:        90158.5 ave       93336 max       86819 min
Histogram: 1 1 1 0 0 0 0 1 1 1

Total # of neighbors = 540951
Ave neighs/atom = 87.137726
Ave special neighs/atom = 1.9793814
Neighbor list builds = 331
Dangerous builds = 0

if "${myDensity} > 1.0" then "jump SELF break"

next a
jump SELF loop
variable a loop 1000
change_box all x scale 0.95 y scale 0.95 z scale 0.95 remap
Changing box ...
  orthogonal box = (546.15310 543.31905 543.31905) to (653.84690 656.68095 656.68095)
  orthogonal box = (546.15310 546.15310 543.31905) to (653.84690 653.84690 656.68095)
  orthogonal box = (546.15310 546.15310 546.15310) to (653.84690 653.84690 653.84690)
run 8000
Per MPI rank memory allocation (min/avg/max) = 12.30 | 12.33 | 12.38 Mbytes
Step PotEng Temp Press KinEng Lx Ly Lz Pzz S/CPU Density 
 1374001    1141.8592    355.76709    2373.0098    6582.3629     107.6938     107.6938     107.6938    2415.6308            0   0.92610504 
 1382001   -2022.4429    351.30927     145.3711    6499.8848     107.6938     107.6938     107.6938    162.70206    341.70391   0.92610504 
Loop time of 23.4122 on 6 procs for 8000 steps with 6208 atoms

Performance: 295.231 ns/day, 0.081 hours/ns, 341.702 timesteps/s
96.4% CPU use with 6 MPI tasks x no OpenMP threads

MPI task timing breakdown:
Section |  min time  |  avg time  |  max time  |%varavg| %total
---------------------------------------------------------------
Pair    | 16.49      | 17.206     | 17.814     |  10.8 | 73.49
Bond    | 0.10769    | 0.11348    | 0.11919    |   1.2 |  0.48
Neigh   | 1.9508     | 1.9529     | 1.9561     |   0.1 |  8.34
Comm    | 2.7775     | 3.3684     | 4.1179     |  24.9 | 14.39
Output  | 4.2915e-05 | 6.5684e-05 | 0.00015903 |   0.0 |  0.00
Modify  | 0.45766    | 0.4686     | 0.47982    |   1.0 |  2.00
Other   |            | 0.3023     |            |       |  1.29

Nlocal:        1034.67 ave        1045 max         999 min
Histogram: 1 0 0 0 0 0 0 0 1 4
Nghost:        12450.3 ave       12500 max       12360 min
Histogram: 1 0 0 0 1 0 1 0 1 2
Neighs:        105183.0 ave      106874 max      100413 min
Histogram: 1 0 0 0 0 0 0 1 2 2

Total # of neighbors = 631097
Ave neighs/atom = 101.65867
Ave special neighs/atom = 1.9793814
Neighbor list builds = 333
Dangerous builds = 0

if "${myDensity} > 1.0" then "jump SELF break"

next a
jump SELF loop
variable a loop 1000
change_box all x scale 0.95 y scale 0.95 z scale 0.95 remap
Changing box ...
  orthogonal box = (548.84545 546.15310 546.15310) to (651.15455 653.84690 653.84690)
  orthogonal box = (548.84545 548.84545 546.15310) to (651.15455 651.15455 653.84690)
  orthogonal box = (548.84545 548.84545 548.84545) to (651.15455 651.15455 651.15455)
run 8000
Per MPI rank memory allocation (min/avg/max) = 12.32 | 12.35 | 12.40 Mbytes
Step PotEng Temp Press KinEng Lx Ly Lz Pzz S/CPU Density 
 1382001    1077.9061    351.30927    3083.9163    6499.8848    102.30911    102.30911    102.30911    3130.5295            0    1.0801633 
 1390001   -2781.5106    358.86401     491.2958    6639.6616    102.30911    102.30911    102.30911    509.58041    293.24602    1.0801633 
Loop time of 27.281 on 6 procs for 8000 steps with 6208 atoms

Performance: 253.364 ns/day, 0.095 hours/ns, 293.245 timesteps/s
96.4% CPU use with 6 MPI tasks x no OpenMP threads

MPI task timing breakdown:
Section |  min time  |  avg time  |  max time  |%varavg| %total
---------------------------------------------------------------
Pair    | 19.776     | 20.181     | 21.293     |  11.8 | 73.97
Bond    | 0.098403   | 0.10939    | 0.12673    |   3.1 |  0.40
Neigh   | 2.3461     | 2.3491     | 2.3541     |   0.2 |  8.61
Comm    | 2.7592     | 3.8498     | 4.2781     |  27.2 | 14.11
Output  | 5.1022e-05 | 7.1327e-05 | 0.00015187 |   0.0 |  0.00
Modify  | 0.45947    | 0.47045    | 0.47515    |   0.8 |  1.72
Other   |            | 0.3215     |            |       |  1.18

Nlocal:        1034.67 ave        1046 max        1020 min
Histogram: 1 1 0 0 0 0 2 0 0 2
Nghost:        13751.5 ave       13818 max       13694 min
Histogram: 1 0 2 0 0 1 0 1 0 1
Neighs:        122933.0 ave      125763 max      121644 min
Histogram: 2 2 0 0 0 1 0 0 0 1

Total # of neighbors = 737600
Ave neighs/atom = 118.81443
Ave special neighs/atom = 1.9793814
Neighbor list builds = 334
Dangerous builds = 0

if "${myDensity} > 1.0" then "jump SELF break"
jump SELF break

####Replicate to form slab

replicate 1 1 7
Replicating atoms ...
  orthogonal box = (548.84545 548.84545 548.84545) to (651.15455 651.15455 1265.0092)
  1 by 1 by 6 MPI processor grid
  43456 atoms
  43008 bonds
Finding 1-2 1-3 1-4 neighbors ...
  special bond factors lj:    0        1        1       
  special bond factors coul:  0        1        1       
     2 = max # of 1-2 neighbors
     6 = max # of special neighbors
  special bonds CPU = 0.001 seconds
  replicate CPU = 0.008 seconds

run 1
Per MPI rank memory allocation (min/avg/max) = 26.63 | 26.66 | 26.71 Mbytes
Step PotEng Temp Press KinEng Lx Ly Lz Pzz S/CPU Density 
 1390001   -19470.574    358.81446     491.2958    46477.631    102.30911    102.30911    716.16376    509.58041            0    1.0801633 
 1390002   -19424.915    358.36486    492.92489    46419.395    102.30911    102.30911    716.16376    503.86249    44.728746    1.0801633 
Loop time of 0.0223935 on 6 procs for 1 steps with 43456 atoms

Performance: 38.583 ns/day, 0.622 hours/ns, 44.656 timesteps/s
99.7% CPU use with 6 MPI tasks x no OpenMP threads

MPI task timing breakdown:
Section |  min time  |  avg time  |  max time  |%varavg| %total
---------------------------------------------------------------
Pair    | 0.020674   | 0.020853   | 0.021104   |   0.1 | 93.12
Bond    | 0.00017285 | 0.00018211 | 0.00018716 |   0.0 |  0.81
Neigh   | 0          | 0          | 0          |   0.0 |  0.00
Comm    | 0.00048995 | 0.00070771 | 0.00095034 |   0.0 |  3.16
Output  | 8.6784e-05 | 0.00013141 | 0.00022793 |   0.0 |  0.59
Modify  | 0.00039291 | 0.00040094 | 0.00040817 |   0.0 |  1.79
Other   |            | 0.0001181  |            |       |  0.53

Nlocal:        7242.67 ave        7273 max        7226 min
Histogram: 1 0 4 0 0 0 0 0 0 1
Nghost:        29421.7 ave       29450 max       29405 min
Histogram: 2 0 1 1 0 1 0 0 0 1
Neighs:        860576.0 ave      868841 max      855114 min
Histogram: 2 1 0 0 0 1 1 0 0 1

Total # of neighbors = 5163459
Ave neighs/atom = 118.82039
Ave special neighs/atom = 1.9793814
Neighbor list builds = 0
Dangerous builds = 0

###Delete replicated atoms

group under molecule < 129
12416 atoms in group under
group over molecule  > 192
24832 atoms in group over
group replica union under over
37248 atoms in group replica
delete_atoms group replica
WARNING: Ignoring 'compress yes' for molecular system (../delete_atoms.cpp:125)
Deleted 37248 atoms, new total = 6208

###Run simulation

fix           fixcentro all recenter INIT INIT INIT
fix           fxbal  all balance 1000 1.05 rcb

compute densidad all chunk/atom bin/1d z lower 0.01 units reduced
fix 3 all ave/chunk 1000 70 100000 densidad density/mass file den-$d-$T.profile
fix 3 all ave/chunk 1000 70 100000 densidad density/mass file den-TIA_WT-$T.profile
fix 3 all ave/chunk 1000 70 100000 densidad density/mass file den-TIA_WT-345.profile

compute  rad all gyration
variable t equal step
variable r equal c_rad
fix      radfile all print 10000 "$t $r" file rad-$d-$T.dat screen no
fix      radfile all print 10000 "$t $r" file rad-TIA_WT-$T.dat screen no
fix      radfile all print 10000 "$t $r" file rad-TIA_WT-345.dat screen no

compute	msd all msd com yes
fix	msd all ave/time 1 1 10000 c_msd[4] file mds-$d-$T.dat
fix	msd all ave/time 1 1 10000 c_msd[4] file mds-TIA_WT-$T.dat
fix	msd all ave/time 1 1 10000 c_msd[4] file mds-TIA_WT-345.dat

run 10000000
Per MPI rank memory allocation (min/avg/max) = 28.87 | 29.18 | 30.13 Mbytes
Step PotEng Temp Press KinEng Lx Ly Lz Pzz S/CPU Density 
 1390002   -1982.2246    358.50622    64.704502    6633.0419    102.30911    102.30911    716.16376    66.433818            0   0.15430905 
 2000000   -325.48357    345.43227    2.1966454    6391.1492    102.30911    102.30911    716.16376    5.2495815    576.84928   0.15430905 
 3000000   -540.57216    347.80101   -1.3570086    6434.9754    102.30911    102.30911    716.16376   0.16313714    608.49958   0.15430905 
 4000000   -453.20066    340.98516    1.7828575    6308.8693    102.30911    102.30911    716.16376  -0.46601659    599.37599   0.15430905 
 5000000   -506.24812    345.17393    3.2002281    6386.3694    102.30911    102.30911    716.16376    4.7538539    581.84744   0.15430905 
 6000000   -627.19605    344.76186    3.1104249    6378.7453    102.30911    102.30911    716.16376    4.4320269    577.53631   0.15430905 
 7000000   -419.83306    347.99239   0.66551172    6438.5162    102.30911    102.30911    716.16376   -2.6686407    597.16236   0.15430905 
 8000000   -434.87834    345.27006   -2.3112837    6388.1479    102.30911    102.30911    716.16376   -1.9914193     591.2412   0.15430905 
 9000000    -429.7197    347.96246    -1.787213    6437.9624    102.30911    102.30911    716.16376   -3.0773795    576.76497   0.15430905 
10000000   -604.84791    345.34689  -0.25714789    6389.5695    102.30911    102.30911    716.16376  -0.97751035    585.14675   0.15430905 
11000000   -465.95395    344.28913    4.6572317    6369.9989    102.30911    102.30911    716.16376    4.5391782    586.04379   0.15430905 
11390002   -468.04915    344.26506 -0.083561967    6369.5535    102.30911    102.30911    716.16376   0.81615252     601.1652   0.15430905 
Loop time of 16983.2 on 6 procs for 10000000 steps with 6208 atoms

Performance: 508.737 ns/day, 0.047 hours/ns, 588.816 timesteps/s
99.4% CPU use with 6 MPI tasks x no OpenMP threads

MPI task timing breakdown:
Section |  min time  |  avg time  |  max time  |%varavg| %total
---------------------------------------------------------------
Pair    | 7953.4     | 11043      | 12146      |1333.9 | 65.03
Bond    | 113.31     | 117.5      | 120.25     |  24.6 |  0.69
Neigh   | 1503.5     | 1519.2     | 1538.8     |  28.7 |  8.95
Comm    | 2330.6     | 3181.9     | 5958.9     |2222.2 | 18.74
Output  | 0.25687    | 0.27203    | 0.2841     |   1.9 |  0.00
Modify  | 766.31     | 979.82     | 1275.3     | 650.2 |  5.77
Other   |            | 141        |            |       |  0.83

Nlocal:        1034.67 ave        1037 max        1033 min
Histogram: 1 0 2 0 0 2 0 0 0 1
Nghost:        6660.33 ave        7723 max        4984 min
Histogram: 1 0 1 0 0 0 1 1 0 2
Neighs:        53877.0 ave       59249 max       37530 min
Histogram: 1 0 0 0 0 0 0 1 1 3

Total # of neighbors = 323262
Ave neighs/atom = 52.071843
Ave special neighs/atom = 1.9793814
Neighbor list builds = 377735
Dangerous builds = 0

write_data data$d-$T.out
write_data dataTIA_WT-$T.out
write_data dataTIA_WT-345.out
System init for write_data ...

shell cd ..

clear

next x

jump SELF loopT
variable x loop 5

variable T equal 335+10*$x
variable T equal 335+10*2

units       real
dimension   3
boundary    p p p
atom_style  full

shell cd $d/
shell cd TIA_WT/

read_data $d.config
read_data TIA_WT.config
Reading data file ...
  orthogonal box = (0.0000000 0.0000000 0.0000000) to (300.00000 300.00000 300.00000)
  1 by 2 by 3 MPI processor grid
  reading atoms ...
  97 atoms
  scanning bonds ...
  1 = max bonds/atom
  reading bonds ...
  96 bonds
Finding 1-2 1-3 1-4 neighbors ...
  special bond factors lj:    0        0        0       
  special bond factors coul:  0        0        0       
     2 = max # of 1-2 neighbors
     2 = max # of 1-3 neighbors
     4 = max # of 1-4 neighbors
     6 = max # of special neighbors
  special bonds CPU = 0.000 seconds
  read_data CPU = 0.057 seconds

log log.$T
log log.355
