
bond_style  harmonic
dielectric  80.0

set type 25 charge 0.75
Setting atom values ...
  0 settings made for charge
set type 27 charge -0.75
Setting atom values ...
  0 settings made for charge
set type 28 charge -0.75
Setting atom values ...
  0 settings made for charge
set type 36 charge 0.375
Setting atom values ...
  0 settings made for charge
set type 23 charge 0.75
Setting atom values ...
  0 settings made for charge

set type 5 charge 0.75
Setting atom values ...
  1 settings made for charge
set type 7 charge -0.75
Setting atom values ...
  0 settings made for charge
set type 3  charge 0.75
Setting atom values ...
  0 settings made for charge
set type 16 charge 0.375
Setting atom values ...
  0 settings made for charge
set type 8  charge -0.75
Setting atom values ...
  1 settings made for charge

bond_coeff          1     9.600     3.81
#bond_coeff          2     9.600     5.00

pair_style  hybrid/overlay wf/cut 25.0 coul/debye 0.126 0.0

pair_coeff 30 30 wf/cut 0.004751 6.45565 1 3 19.367
pair_coeff 1 1 wf/cut 0.039564 6.467950871367303 1 2 19.403852614101908
pair_coeff 1 2 wf/cut 0.068017 5.576178403526399 1 2 16.728535210579196
pair_coeff 1 3 wf/cut 0.032686 6.5677835361737795 1 2 19.70335060852134
pair_coeff 1 4 wf/cut 0.035161 6.178228033595178 1 2 18.534684100785533
pair_coeff 1 5 wf/cut 0.171515 6.643964892255349 1 2 19.93189467676605
pair_coeff 1 6 wf/cut 0.044522 5.868502140125925 1 2 17.605506420377775
pair_coeff 1 7 wf/cut 0.073172 6.14145960937047 1 2 18.424378828111408
pair_coeff 1 8 wf/cut 0.077577 6.318176525841784 1 2 18.95452957752535
pair_coeff 1 9 wf/cut 0.229375 6.590037435016079 1 2 19.770112305048237
pair_coeff 1 10 wf/cut 0.022571 6.320571545407576 1 2 18.96171463622273
pair_coeff 1 11 wf/cut 0.025281 6.483443734640188 1 2 19.450331203920562
pair_coeff 1 12 wf/cut 0.120006 6.36518785664648 1 2 19.09556356993944
pair_coeff 1 13 wf/cut 0.294931 6.755728450520449 1 2 20.267185351561345
pair_coeff 1 14 wf/cut 0.215603 6.538208522101147 1 2 19.61462556630344
pair_coeff 1 15 wf/cut 0.050582 5.938940625510648 1 2 17.816821876531947
pair_coeff 1 16 wf/cut 0.203491 6.392507281968151 1 2 19.177521845904455
pair_coeff 1 17 wf/cut 0.116706 6.188018494610175 1 2 18.564055483830522
pair_coeff 1 18 wf/cut 0.059120 6.1344640513130955 1 2 18.403392153939286
pair_coeff 1 19 wf/cut 0.054437 6.094294827619396 1 2 18.282884482858186
pair_coeff 1 20 wf/cut 0.019979 6.496393035701747 1 2 19.48917910710524
pair_coeff 1 21 wf/cut 0.033511 6.472967463905089 1 2 19.418902391715267
pair_coeff 1 22 wf/cut 0.053464 5.579884038976499 1 2 16.7396521169295
pair_coeff 1 23 wf/cut 0.028840 6.572908139010548 1 2 19.718724417031645
pair_coeff 1 24 wf/cut 0.030487 6.183085528083141 1 2 18.549256584249424
pair_coeff 1 25 wf/cut 0.126057 6.646517494086263 1 2 19.93955248225879
pair_coeff 1 26 wf/cut 0.037087 5.873266644604083 1 2 17.61979993381225
pair_coeff 1 27 wf/cut 0.057192 6.145621669676131 1 2 18.43686500902839
pair_coeff 1 28 wf/cut 0.060220 6.322430858089529 1 2 18.967292574268587
pair_coeff 1 29 wf/cut 0.166559 6.592040039094211 1 2 19.776120117282634
pair_coeff 1 30 wf/cut 0.022157 6.322886509244067 1 2 18.9686595277322
pair_coeff 1 31 wf/cut 0.023649 6.486360198534797 1 2 19.45908059560439
pair_coeff 1 32 wf/cut 0.089698 6.368425539955892 1 2 19.105276619867674
pair_coeff 1 33 wf/cut 0.212282 6.7573688868401405 1 2 20.27210666052042
pair_coeff 1 34 wf/cut 0.156918 6.5402914181442595 1 2 19.620874254432778
pair_coeff 1 35 wf/cut 0.041217 5.943583554201671 1 2 17.830750662605013
pair_coeff 1 36 wf/cut 0.148384 6.394666170151445 1 2 19.183998510454334
pair_coeff 1 37 wf/cut 0.087498 6.191219964195186 1 2 18.57365989258556
pair_coeff 1 38 wf/cut 0.047275 6.139108925912469 1 2 18.417326777737408
pair_coeff 1 39 wf/cut 0.043970 6.098946985727069 1 2 18.296840957181207
pair_coeff 1 40 wf/cut 0.019979 6.496393035701747 1 2 19.48917910710524
pair_coeff 2 2 wf/cut 0.096470 4.695110240398406 1 2 14.085330721195216
pair_coeff 2 3 wf/cut 0.061139 5.671338290828199 1 2 17.014014872484598
pair_coeff 2 4 wf/cut 0.063614 5.284424971479424 1 2 15.85327491443827
pair_coeff 2 5 wf/cut 0.199968 5.766386193227936 1 2 17.299158579683805
pair_coeff 2 6 wf/cut 0.072975 4.980134552672144 1 2 14.940403658016432
pair_coeff 2 7 wf/cut 0.101625 5.2592548053112145 1 2 15.777764415933643
pair_coeff 2 8 wf/cut 0.106030 5.436374588857539 1 2 16.30912376657262
pair_coeff 2 9 wf/cut 0.257828 5.7131654456309935 1 2 17.139496336892982
pair_coeff 2 10 wf/cut 0.051024 5.412393397897493 1 2 16.23718019369248
pair_coeff 2 11 wf/cut 0.053734 5.578930397816427 1 2 16.736791193449278
pair_coeff 2 12 wf/cut 0.148459 5.486299347261422 1 2 16.458898041784266
pair_coeff 2 13 wf/cut 0.323384 5.879238002082802 1 2 17.63771400624841
pair_coeff 2 14 wf/cut 0.244056 5.661218822883835 1 2 16.983656468651503
pair_coeff 2 15 wf/cut 0.079035 5.052524512175333 1 2 15.157573536526
pair_coeff 2 16 wf/cut 0.231944 5.515411637199979 1 2 16.54623491159994
pair_coeff 2 17 wf/cut 0.145159 5.3090163197417555 1 2 15.927048959225267
pair_coeff 2 18 wf/cut 0.087573 5.249990542761369 1 2 15.749971628284106
pair_coeff 2 19 wf/cut 0.082890 5.208722790322849 1 2 15.626168370968546
pair_coeff 2 20 wf/cut 0.048432 5.580329252471181 1 2 16.740987757413542
pair_coeff 2 21 wf/cut 0.061964 5.577215175821233 1 2 16.731645527463698
pair_coeff 2 22 wf/cut 0.081917 4.696396560631559 1 2 14.089189681894677
pair_coeff 2 23 wf/cut 0.057293 5.67211261999139 1 2 17.016337859974172
pair_coeff 2 24 wf/cut 0.058940 5.285212528563172 1 2 15.855637585689518
pair_coeff 2 25 wf/cut 0.154510 5.767769508320207 1 2 17.30330852496062
pair_coeff 2 26 wf/cut 0.065540 4.981125987510791 1 2 14.943377962532374
pair_coeff 2 27 wf/cut 0.085645 5.260651874488179 1 2 15.781955623464537
pair_coeff 2 28 wf/cut 0.088673 5.437809343618614 1 2 16.313428030855842
pair_coeff 2 29 wf/cut 0.195012 5.714358676536591 1 2 17.143076029609773
pair_coeff 2 30 wf/cut 0.050610 5.412530359493723 1 2 16.23759107848117
pair_coeff 2 31 wf/cut 0.052102 5.579325356579805 1 2 16.737976069739414
pair_coeff 2 32 wf/cut 0.118151 5.487774115196598 1 2 16.463322345589795
pair_coeff 2 33 wf/cut 0.240735 5.880303283956183 1 2 17.64090985186855
pair_coeff 2 34 wf/cut 0.185371 5.662447134978403 1 2 16.987341404935208
pair_coeff 2 35 wf/cut 0.069670 5.053695239348068 1 2 15.161085718044204
pair_coeff 2 36 wf/cut 0.176837 5.516638738971832 1 2 16.549916216915495
pair_coeff 2 37 wf/cut 0.115951 5.310437234694913 1 2 15.931311704084738
pair_coeff 2 38 wf/cut 0.075728 5.251325825579545 1 2 15.753977476738633
pair_coeff 2 39 wf/cut 0.072423 5.20997288304294 1 2 15.629918649128818
pair_coeff 2 40 wf/cut 0.048432 5.580329252471181 1 2 16.740987757413542
pair_coeff 3 3 wf/cut 0.019117 6.671340524039856 1 2 20.014021572119567
pair_coeff 3 4 wf/cut 0.028283 6.279399881910995 1 2 18.838199645732985
pair_coeff 3 5 wf/cut 0.121938 6.73819193132635 1 2 20.21457579397905
pair_coeff 3 6 wf/cut 0.037644 5.966686347623176 1 2 17.90005904286953
pair_coeff 3 7 wf/cut 0.000493 6.236987380482699 1 2 18.710962141448096
pair_coeff 3 8 wf/cut 0.000526 6.413575163938182 1 2 19.240725491814544
pair_coeff 3 9 wf/cut 0.102701 6.684083406034673 1 2 20.052250218104017
pair_coeff 3 10 wf/cut 0.015693 6.433541011383533 1 2 19.3006230341506
pair_coeff 3 11 wf/cut 0.018403 6.592557574989555 1 2 19.777672724968664
pair_coeff 3 12 wf/cut 0.113128 6.4596938105680355 1 2 19.37908143170411
pair_coeff 3 13 wf/cut 0.104796 6.849685211660051 1 2 20.549055634980153
pair_coeff 3 14 wf/cut 0.115276 6.632280360446061 1 2 19.896841081338184
pair_coeff 3 15 wf/cut 0.043704 6.036179732070119 1 2 18.10853919621036
pair_coeff 3 16 wf/cut 0.087370 6.4866030031823305 1 2 19.45980900954699
pair_coeff 3 17 wf/cut 0.109828 6.2825460057664415 1 2 18.847638017299325
pair_coeff 3 18 wf/cut 0.052242 6.2310615597122725 1 2 18.693184679136817
pair_coeff 3 19 wf/cut 0.047559 6.191153675456269 1 2 18.573461026368804
pair_coeff 3 20 wf/cut 0.013101 6.617996254538358 1 2 19.853988763615074
pair_coeff 3 21 wf/cut 0.026633 6.575236990212751 1 2 19.725710970638254
pair_coeff 3 22 wf/cut 0.046586 5.67591070475063 1 2 17.02773211425189
pair_coeff 3 23 wf/cut 0.016267 6.6786690213492745 1 2 20.036007064047823
pair_coeff 3 24 wf/cut 0.023609 6.28697050091405 1 2 18.860911502742148
pair_coeff 3 25 wf/cut 0.088471 6.7410021187479785 1 2 20.223006356243935
pair_coeff 3 26 wf/cut 0.030209 5.973496417353158 1 2 17.920489252059475
pair_coeff 3 27 wf/cut 0.000375 6.242202340571064 1 2 18.726607021713193
pair_coeff 3 28 wf/cut 0.000395 6.41884518513886 1 2 19.25653555541658
pair_coeff 3 29 wf/cut 0.087295 6.686244113621416 1 2 20.058732340864246
pair_coeff 3 30 wf/cut 0.015279 6.438064853494475 1 2 19.314194560483426
pair_coeff 3 31 wf/cut 0.016771 6.597859600272992 1 2 19.793578800818977
pair_coeff 3 32 wf/cut 0.082820 6.463434808995108 1 2 19.390304426985324
pair_coeff 3 33 wf/cut 0.089077 6.851438991432198 1 2 20.554316974296594
pair_coeff 3 34 wf/cut 0.097985 6.634536462444846 1 2 19.903609387334537
pair_coeff 3 35 wf/cut 0.034339 6.042553594266142 1 2 18.127660782798426
pair_coeff 3 36 wf/cut 0.062880 6.488951472342971 1 2 19.466854417028912
pair_coeff 3 37 wf/cut 0.080620 6.286259565568102 1 2 18.858778696704306
pair_coeff 3 38 wf/cut 0.040397 6.23694969931501 1 2 18.71084909794503
pair_coeff 3 39 wf/cut 0.037092 6.197406382364393 1 2 18.59221914709318
pair_coeff 3 40 wf/cut 0.013101 6.617996254538358 1 2 19.853988763615074
pair_coeff 4 4 wf/cut 0.030758 5.8890615748048605 1 2 17.667184724414582
pair_coeff 4 5 wf/cut 0.167112 6.352015695367313 1 2 19.056047086101938
pair_coeff 4 6 wf/cut 0.040119 5.577947754246859 1 2 16.733843262740578
pair_coeff 4 7 wf/cut 0.068769 5.849866323299111 1 2 17.549598969897332
pair_coeff 4 8 wf/cut 0.073174 6.026541387517959 1 2 18.079624162553877
pair_coeff 4 9 wf/cut 0.224972 6.298063007043266 1 2 18.894189021129797
pair_coeff 4 10 wf/cut 0.018168 6.03696547344559 1 2 18.11089642033677
pair_coeff 4 11 wf/cut 0.020878 6.198088878491606 1 2 18.594266635474817
pair_coeff 4 12 wf/cut 0.115603 6.073287961608412 1 2 18.219863884825237
pair_coeff 4 13 wf/cut 0.290527 6.463775207339586 1 2 19.39132562201876
pair_coeff 4 14 wf/cut 0.211200 6.246251077325644 1 2 18.73875323197693
pair_coeff 4 15 wf/cut 0.046179 5.648007650359314 1 2 16.94402295107794
pair_coeff 4 16 wf/cut 0.199088 6.1005286446452045 1 2 18.301585933935613
pair_coeff 4 17 wf/cut 0.112303 5.896099182190375 1 2 17.688297546571125
pair_coeff 4 18 wf/cut 0.054717 5.84319611761197 1 2 17.52958835283591
pair_coeff 4 19 wf/cut 0.050034 5.803211551983609 1 2 17.40963465595083
pair_coeff 4 20 wf/cut 0.015576 6.214617146494642 1 2 18.643851439483925
pair_coeff 4 21 wf/cut 0.029108 6.184377266229273 1 2 18.55313179868782
pair_coeff 4 22 wf/cut 0.049061 5.288433024843104 1 2 15.865299074529311
pair_coeff 4 23 wf/cut 0.024437 6.285985931141882 1 2 18.857957793425648
pair_coeff 4 24 wf/cut 0.026084 5.895181038887271 1 2 17.685543116661812
pair_coeff 4 25 wf/cut 0.121654 6.3546176961456355 1 2 19.063853088436908
pair_coeff 4 26 wf/cut 0.032684 5.583620888610048 1 2 16.75086266583014
pair_coeff 4 27 wf/cut 0.052789 5.854435916763915 1 2 17.563307750291745
pair_coeff 4 28 wf/cut 0.055817 6.031184910048361 1 2 18.093554730145083
pair_coeff 4 29 wf/cut 0.162155 6.300073473520442 1 2 18.900220420561325
pair_coeff 4 30 wf/cut 0.017754 6.038590687548953 1 2 18.115772062646858
pair_coeff 4 31 wf/cut 0.019246 6.20213243224441 1 2 18.606397296733228
pair_coeff 4 32 wf/cut 0.085295 6.076667470375622 1 2 18.230002411126865
pair_coeff 4 33 wf/cut 0.207879 6.4653998696548625 1 2 19.396199608964587
pair_coeff 4 34 wf/cut 0.152515 6.248347277402027 1 2 18.74504183220608
pair_coeff 4 35 wf/cut 0.036814 5.653400669933968 1 2 16.960202009801904
pair_coeff 4 36 wf/cut 0.143981 6.1027057764377375 1 2 18.308117329313212
pair_coeff 4 37 wf/cut 0.083095 5.899444861363162 1 2 17.698334584089487
pair_coeff 4 38 wf/cut 0.042872 5.848454222246143 1 2 17.545362666738427
pair_coeff 4 39 wf/cut 0.039567 5.808550835350359 1 2 17.425652506051076
pair_coeff 4 40 wf/cut 0.015576 6.214617146494642 1 2 18.643851439483925
pair_coeff 5 5 wf/cut 0.089916 6.839051042416954 1 2 20.51715312725086
pair_coeff 5 6 wf/cut 0.176473 6.049093128275473 1 2 18.14727938482642
pair_coeff 5 7 wf/cut 0.001522 6.329860382208001 1 2 18.989581146624005
pair_coeff 5 8 wf/cut 0.001554 6.507087894628845 1 2 19.521263683886534
pair_coeff 5 9 wf/cut 0.607820 6.786238537205683 1 2 20.358715611617047
pair_coeff 5 10 wf/cut 0.154522 6.477800731622431 1 2 19.433402194867295
pair_coeff 5 11 wf/cut 0.157232 6.644606745714045 1 2 19.933820237142136
pair_coeff 5 12 wf/cut 0.251957 6.5582801074116395 1 2 19.674840322234918
pair_coeff 5 13 wf/cut 0.691657 6.952550947859904 1 2 20.85765284357971
pair_coeff 5 14 wf/cut 0.544942 6.734244851368496 1 2 20.20273455410549
pair_coeff 5 15 wf/cut 0.182533 6.121907195991114 1 2 18.365721587973344
pair_coeff 5 16 wf/cut 0.124237 6.588371399225676 1 2 19.76511419767703
pair_coeff 5 17 wf/cut 0.248657 6.381027696653046 1 2 19.143083089959138
pair_coeff 5 18 wf/cut 0.191071 6.319850876308843 1 2 18.95955262892653
pair_coeff 5 19 wf/cut 0.186388 6.2782756347766915 1 2 18.834826904330075
pair_coeff 5 20 wf/cut 0.151930 6.644914452592528 1 2 19.934743357777585
pair_coeff 5 21 wf/cut 0.165462 6.6442230427261695 1 2 19.93266912817851
pair_coeff 5 22 wf/cut 0.185415 5.7668587075646895 1 2 17.300576122694068
pair_coeff 5 23 wf/cut 0.160791 6.738370816695987 1 2 20.21511245008796
pair_coeff 5 24 wf/cut 0.162438 6.352227758045304 1 2 19.056683274135914
pair_coeff 5 25 wf/cut 0.076528 6.839775073180529 1 2 20.519325219541585
pair_coeff 5 26 wf/cut 0.169038 6.0493803544908396 1 2 18.14814106347252
pair_coeff 5 27 wf/cut 0.001403 6.330338025744615 1 2 18.991014077233842
pair_coeff 5 28 wf/cut 0.001424 6.507609785991295 1 2 19.522829357973883
pair_coeff 5 29 wf/cut 0.516647 6.786966179847217 1 2 20.36089853954165
pair_coeff 5 30 wf/cut 0.154108 6.477855546012645 1 2 19.433566638037934
pair_coeff 5 31 wf/cut 0.155600 6.644688317632491 1 2 19.934064952897472
pair_coeff 5 32 wf/cut 0.221649 6.558922216808411 1 2 19.676766650425233
pair_coeff 5 33 wf/cut 0.587908 6.953270762564632 1 2 20.859812287693895
pair_coeff 5 34 wf/cut 0.463200 6.734965561624807 1 2 20.20489668487442
pair_coeff 5 35 wf/cut 0.173168 6.122239691611766 1 2 18.366719074835295
pair_coeff 5 36 wf/cut 0.103828 6.589083179632521 1 2 19.767249538897563
pair_coeff 5 37 wf/cut 0.219449 6.381655047319296 1 2 19.14496514195789
pair_coeff 5 38 wf/cut 0.179226 6.320242196579514 1 2 18.96072658973854
pair_coeff 5 39 wf/cut 0.175921 6.27864243896636 1 2 18.83592731689908
pair_coeff 5 40 wf/cut 0.151930 6.644914452592528 1 2 19.934743357777585
pair_coeff 6 6 wf/cut 0.049480 5.270073550243385 1 2 15.810220650730155
pair_coeff 6 7 wf/cut 0.078130 5.545103888084069 1 2 16.635311664252207
pair_coeff 6 8 wf/cut 0.082535 5.721983178129665 1 2 17.165949534388993
pair_coeff 6 9 wf/cut 0.234333 5.995374866482686 1 2 17.986124599448058
pair_coeff 6 10 wf/cut 0.027529 5.714672842433839 1 2 17.14401852730152
pair_coeff 6 11 wf/cut 0.030239 5.879183169613761 1 2 17.637549508841282
pair_coeff 6 12 wf/cut 0.124964 5.769878425481944 1 2 17.30963527644583
pair_coeff 6 13 wf/cut 0.299889 6.1612197345718664 1 2 18.4836592037156
pair_coeff 6 14 wf/cut 0.220561 5.943524169558512 1 2 17.830572508675537
pair_coeff 6 15 wf/cut 0.055540 5.341186580911172 1 2 16.023559742733518
pair_coeff 6 16 wf/cut 0.208449 5.797765867232053 1 2 17.393297601696162
pair_coeff 6 17 wf/cut 0.121665 5.592676667454632 1 2 16.778030002363895
pair_coeff 6 18 wf/cut 0.064078 5.537383848868321 1 2 16.612151546604963
pair_coeff 6 19 wf/cut 0.059395 5.496867679432823 1 2 16.490603038298467
pair_coeff 6 20 wf/cut 0.024937 5.887264113119765 1 2 17.661792339359295
pair_coeff 6 21 wf/cut 0.038469 5.872091702440819 1 2 17.616275107322455
pair_coeff 6 22 wf/cut 0.058422 4.983057318967985 1 2 14.949171956903955
pair_coeff 6 23 wf/cut 0.033798 5.970212624670237 1 2 17.91063787401071
pair_coeff 6 24 wf/cut 0.035445 5.581322386503443 1 2 16.743967159510326
pair_coeff 6 25 wf/cut 0.131015 6.051283655448215 1 2 18.153850966344642
pair_coeff 6 26 wf/cut 0.042046 5.273529178305013 1 2 15.82058753491504
pair_coeff 6 27 wf/cut 0.062150 5.548382201124551 1 2 16.645146603373654
pair_coeff 6 28 wf/cut 0.065178 5.725365872076537 1 2 17.17609761622961
pair_coeff 6 29 wf/cut 0.171517 5.997120040197383 1 2 17.991360120592148
pair_coeff 6 30 wf/cut 0.027116 5.716115591130418 1 2 17.148346773391253
pair_coeff 6 31 wf/cut 0.028607 5.881066148485684 1 2 17.643198445457053
pair_coeff 6 32 wf/cut 0.094656 5.77257425641905 1 2 17.317722769257152
pair_coeff 6 33 wf/cut 0.217240 6.16266774871136 1 2 18.48800324613408
pair_coeff 6 34 wf/cut 0.161876 5.945332519051 1 2 17.835997557153
pair_coeff 6 35 wf/cut 0.046175 5.344636755005952 1 2 16.03391026501786
pair_coeff 6 36 wf/cut 0.153342 5.799630893236802 1 2 17.398892679710407
pair_coeff 6 37 wf/cut 0.092457 5.595329366190724 1 2 16.785988098572172
pair_coeff 6 38 wf/cut 0.052233 5.540935423926066 1 2 16.6228062717782
pair_coeff 6 39 wf/cut 0.048928 5.50037559161048 1 2 16.50112677483144
pair_coeff 6 40 wf/cut 0.024937 5.887264113119765 1 2 17.661792339359295
pair_coeff 7 7 wf/cut 0.079096 5.823521721060312 1 2 17.470565163180936
pair_coeff 7 8 wf/cut 0.082359 6.000582237524121 1 2 18.001746712572363
pair_coeff 7 9 wf/cut 0.262983 6.276473791430636 1 2 18.829421374291908
pair_coeff 7 10 wf/cut 0.056178 5.978735433494051 1 2 17.93620630048215
pair_coeff 7 11 wf/cut 0.058888 6.145089275635634 1 2 18.4352678269069
pair_coeff 7 12 wf/cut 0.153614 6.0500403862929435 1 2 18.150121158878832
pair_coeff 7 13 wf/cut 0.328538 6.4424403069543335 1 2 19.327320920863002
pair_coeff 7 14 wf/cut 0.249211 6.224557346027278 1 2 18.673672038081833
pair_coeff 7 15 wf/cut 0.084189 5.617298771179795 1 2 16.851896313539385
pair_coeff 7 16 wf/cut 0.001758 6.078759471752929 1 2 18.236278415258788
pair_coeff 7 17 wf/cut 0.150314 5.872796196825872 1 2 17.618388590477615
pair_coeff 7 18 wf/cut 0.092728 5.81454574012806 1 2 17.44363722038418
pair_coeff 7 19 wf/cut 0.088045 5.773404302618334 1 2 17.320212907855
pair_coeff 7 20 wf/cut 0.053587 6.146988238119009 1 2 18.44096471435703
pair_coeff 7 21 wf/cut 0.067118 6.142810853550669 1 2 18.428432560652006
pair_coeff 7 22 wf/cut 0.087071 5.260822534908925 1 2 15.782467604726776
pair_coeff 7 23 wf/cut 0.062448 6.238009317192061 1 2 18.714027951576185
pair_coeff 7 24 wf/cut 0.064094 5.850906179325341 1 2 17.552718537976023
pair_coeff 7 25 wf/cut 0.159665 6.331479448731908 1 2 18.994438346195725
pair_coeff 7 26 wf/cut 0.070695 5.546505225276659 1 2 16.639515675829976
pair_coeff 7 27 wf/cut 0.067258 5.825264832984326 1 2 17.47579449895298
pair_coeff 7 28 wf/cut 0.069297 6.002427424339147 1 2 18.00728227301744
pair_coeff 7 29 wf/cut 0.200166 6.277866750279897 1 2 18.83360025083969
pair_coeff 7 30 wf/cut 0.055765 5.978921905643417 1 2 17.93676571693025
pair_coeff 7 31 wf/cut 0.057257 6.145621669676131 1 2 18.43686500902839
pair_coeff 7 32 wf/cut 0.123306 6.051811079871612 1 2 18.155433239614837
pair_coeff 7 33 wf/cut 0.245890 6.4436539809330755 1 2 19.330961942799227
pair_coeff 7 34 wf/cut 0.190526 6.225980124267849 1 2 18.677940372803548
pair_coeff 7 35 wf/cut 0.074825 5.6188072088999945 1 2 16.856421626699984
pair_coeff 7 36 wf/cut 0.001350 6.080187764149639 1 2 18.24056329244892
pair_coeff 7 37 wf/cut 0.121106 5.874523045623452 1 2 17.623569136870355
pair_coeff 7 38 wf/cut 0.080883 5.816239431041905 1 2 17.448718293125715
pair_coeff 7 39 wf/cut 0.077578 5.775001596638995 1 2 17.325004789916985
pair_coeff 7 40 wf/cut 0.053587 6.146988238119009 1 2 18.44096471435703
pair_coeff 8 8 wf/cut 0.085622 6.177670315650897 1 2 18.533010946952693
pair_coeff 8 9 wf/cut 0.267388 6.453698205558216 1 2 19.36109461667465
pair_coeff 8 10 wf/cut 0.060583 6.155038804583549 1 2 18.46511641375065
pair_coeff 8 11 wf/cut 0.063293 6.321457293122011 1 2 18.964371879366034
pair_coeff 8 12 wf/cut 0.158019 6.22721384211578 1 2 18.681641526347338
pair_coeff 8 13 wf/cut 0.332943 6.61969178186508 1 2 19.85907534559524
pair_coeff 8 14 wf/cut 0.253616 6.401798946045327 1 2 19.205396838135982
pair_coeff 8 15 wf/cut 0.088594 5.794219764312674 1 2 17.382659292938023
pair_coeff 8 16 wf/cut 0.001791 6.2560007029022255 1 2 18.768002108706675
pair_coeff 8 17 wf/cut 0.154719 6.049988923928926 1 2 18.14996677178678
pair_coeff 8 18 wf/cut 0.097133 5.991524845146615 1 2 17.974574535439846
pair_coeff 8 19 wf/cut 0.092450 5.950364732175825 1 2 17.851094196527477
pair_coeff 8 20 wf/cut 0.057992 6.323325627682127 1 2 18.96997688304638
pair_coeff 8 21 wf/cut 0.071523 6.319407907453407 1 2 18.95822372236022
pair_coeff 8 22 wf/cut 0.091476 5.437918514751647 1 2 16.313755544254942
pair_coeff 8 23 wf/cut 0.066853 6.414637503765215 1 2 19.243912511295648
pair_coeff 8 24 wf/cut 0.068499 6.027610728824833 1 2 18.082832186474498
pair_coeff 8 25 wf/cut 0.164070 6.50867097271995 1 2 19.52601291815985
pair_coeff 8 26 wf/cut 0.075100 5.723271374681476 1 2 17.16981412404443
pair_coeff 8 27 wf/cut 0.095204 6.002225923033709 1 2 18.006677769101127
pair_coeff 8 28 wf/cut 0.072560 6.179413824459994 1 2 18.538241473379983
pair_coeff 8 29 wf/cut 0.204571 6.455074051412765 1 2 19.365222154238296
pair_coeff 8 30 wf/cut 0.060170 6.155372367938502 1 2 18.466117103815506
pair_coeff 8 31 wf/cut 0.061662 6.321931368367982 1 2 18.965794105103946
pair_coeff 8 32 wf/cut 0.127711 6.228922014398231 1 2 18.686766043194694
pair_coeff 8 33 wf/cut 0.250295 6.620903112987423 1 2 19.86270933896227
pair_coeff 8 34 wf/cut 0.194931 6.403201712664134 1 2 19.2096051379924
pair_coeff 8 35 wf/cut 0.079230 5.795615810910755 1 2 17.386847432732267
pair_coeff 8 36 wf/cut 0.001379 6.257425310960982 1 2 18.772275932882945
pair_coeff 8 37 wf/cut 0.125511 6.051653861598323 1 2 18.154961584794968
pair_coeff 8 38 wf/cut 0.085288 5.993104375441103 1 2 17.97931312632331
pair_coeff 8 39 wf/cut 0.081983 5.951847773872721 1 2 17.855543321618164
pair_coeff 8 40 wf/cut 0.057992 6.323325627682127 1 2 18.96997688304638
pair_coeff 9 9 wf/cut 0.419186 6.733634028253079 1 2 20.20090208475924
pair_coeff 9 10 wf/cut 0.212382 6.423549039740656 1 2 19.270647119221966
pair_coeff 9 11 wf/cut 0.215092 6.590387900103195 1 2 19.771163700309586
pair_coeff 9 12 wf/cut 0.309817 6.50524897581083 1 2 19.51574692743249
pair_coeff 9 13 wf/cut 0.484741 6.900050363131952 1 2 20.700151089395856
pair_coeff 9 14 wf/cut 0.405414 6.6815889712242855 1 2 20.044766913672856
pair_coeff 9 15 wf/cut 0.240393 6.068280818635755 1 2 18.204842455907265
pair_coeff 9 16 wf/cut 0.393302 6.535691224609458 1 2 19.607073673828374
pair_coeff 9 17 wf/cut 0.306517 6.327982683666391 1 2 18.98394805099917
pair_coeff 9 18 wf/cut 0.248931 6.266295198960733 1 2 18.798885596882197
pair_coeff 9 19 wf/cut 0.244248 6.2246507773507185 1 2 18.673952332052156
pair_coeff 9 20 wf/cut 0.209790 6.5905505017289965 1 2 19.771651505186988
pair_coeff 9 21 wf/cut 0.223322 6.590180270116687 1 2 19.770540810350063
pair_coeff 9 22 wf/cut 0.243275 5.713450024075365 1 2 17.140350072226095
pair_coeff 9 23 wf/cut 0.218651 6.6841805825849985 1 2 20.052541747754994
pair_coeff 9 24 wf/cut 0.220298 6.298178954636986 1 2 18.894536863910957
pair_coeff 9 25 wf/cut 0.315868 6.786739795335731 1 2 20.360219386007195
pair_coeff 9 26 wf/cut 0.226898 5.99553560612189 1 2 17.98660681836567
pair_coeff 9 27 wf/cut 0.247003 6.276768673597067 1 2 18.8303060207912
pair_coeff 9 28 wf/cut 0.250031 6.454011505099358 1 2 19.362034515298074
pair_coeff 9 29 wf/cut 0.356369 6.734156486173098 1 2 20.202469458519293
pair_coeff 9 30 wf/cut 0.211968 6.4235779793345555 1 2 19.270733938003666
pair_coeff 9 31 wf/cut 0.213460 6.590431338464252 1 2 19.771294015392755
pair_coeff 9 32 wf/cut 0.279509 6.505661229041637 1 2 19.516983687124913
pair_coeff 9 33 wf/cut 0.402093 6.900589936537501 1 2 20.701769809612504
pair_coeff 9 34 wf/cut 0.346729 6.682106650582579 1 2 20.046319951747737
pair_coeff 9 35 wf/cut 0.231028 6.06846960743136 1 2 18.20540882229408
pair_coeff 9 36 wf/cut 0.338195 6.536191669581551 1 2 19.60857500874465
pair_coeff 9 37 wf/cut 0.277309 6.328383771538186 1 2 18.98515131461456
pair_coeff 9 38 wf/cut 0.237086 6.266521616565618 1 2 18.799564849696853
pair_coeff 9 39 wf/cut 0.233781 6.224860927463627 1 2 18.674582782390882
pair_coeff 9 40 wf/cut 0.209790 6.5905505017289965 1 2 19.771651505186988
pair_coeff 10 10 wf/cut 0.005578 6.265999286288815 1 2 18.797997858866445
pair_coeff 10 11 wf/cut 0.008288 6.390932891994093 1 2 19.17279867598228
pair_coeff 10 12 wf/cut 0.103013 6.199729734496916 1 2 18.59918920349075
pair_coeff 10 13 wf/cut 0.277937 6.589117480615403 1 2 19.76735244184621
pair_coeff 10 14 wf/cut 0.198610 6.371783619045257 1 2 19.11535085713577
pair_coeff 10 15 wf/cut 0.033589 5.781664862063682 1 2 17.344994586191046
pair_coeff 10 16 wf/cut 0.186498 6.226104236834126 1 2 18.67831271050238
pair_coeff 10 17 wf/cut 0.099713 6.022605657483588 1 2 18.067816972450764
pair_coeff 10 18 wf/cut 0.042127 5.974331431598945 1 2 17.922994294796837
pair_coeff 10 19 wf/cut 0.037444 5.935671447441882 1 2 17.807014342325644
pair_coeff 10 21 wf/cut 0.016518 6.336783382464571 1 2 19.010350147393712
pair_coeff 10 22 wf/cut 0.036471 5.418375566526451 1 2 16.255126699579353
pair_coeff 10 23 wf/cut 0.011847 6.452549354094189 1 2 19.357648062282568
pair_coeff 10 24 wf/cut 0.013494 6.0532242372044625 1 2 18.15967271161339
pair_coeff 10 25 wf/cut 0.109064 6.480992623201166 1 2 19.442977869603496
pair_coeff 10 26 wf/cut 0.020094 5.727883796640076 1 2 17.18365138992023
pair_coeff 10 27 wf/cut 0.040199 5.986137211233324 1 2 17.958411633699974
pair_coeff 10 28 wf/cut 0.043227 6.162354266488605 1 2 18.487062799465814
pair_coeff 10 29 wf/cut 0.149565 6.425899535640867 1 2 19.277698606922602
pair_coeff 10 30 wf/cut 0.005164 6.279450553510229 1 2 18.838351660530687
pair_coeff 10 31 wf/cut 0.006656 6.414806714205564 1 2 19.24442014261669
pair_coeff 10 32 wf/cut 0.072705 6.20424895331838 1 2 18.61274685995514
pair_coeff 10 33 wf/cut 0.195289 6.590957221363035 1 2 19.772871664089106
pair_coeff 10 34 wf/cut 0.139925 6.374256698313246 1 2 19.12277009493974
pair_coeff 10 35 wf/cut 0.024224 5.79281450588842 1 2 17.37844351766526
pair_coeff 10 36 wf/cut 0.131391 6.228661475252712 1 2 18.685984425758136
pair_coeff 10 37 wf/cut 0.070505 6.027117316392745 1 2 18.081351949178234
pair_coeff 10 38 wf/cut 0.030282 5.983977483837185 1 2 17.951932451511553
pair_coeff 10 39 wf/cut 0.026977 5.94607610198081 1 2 17.83822830594243
pair_coeff 11 11 wf/cut 0.010998 6.53407242179841 1 2 19.60221726539523
pair_coeff 11 12 wf/cut 0.105723 6.366490684329992 1 2 19.099472052989977
pair_coeff 11 13 wf/cut 0.280647 6.755935225417062 1 2 20.267805676251186
pair_coeff 11 14 wf/cut 0.201320 6.538603519887749 1 2 19.615810559663245
pair_coeff 11 15 wf/cut 0.036299 5.946968662780402 1 2 17.840905988341206
pair_coeff 11 16 wf/cut 0.189208 6.392942886970462 1 2 19.178828660911385
pair_coeff 11 17 wf/cut 0.102423 6.189364574070181 1 2 18.56809372221054
pair_coeff 11 18 wf/cut 0.044837 6.1402119935661545 1 2 18.420635980698464
pair_coeff 11 19 wf/cut 0.040154 6.101247830628814 1 2 18.30374349188644
pair_coeff 11 20 wf/cut 0.005696 6.607723261980873 1 2 19.823169785942618
pair_coeff 11 21 wf/cut 0.019228 6.496393035701747 1 2 19.48917910710524
pair_coeff 11 22 wf/cut 0.039181 5.584501642231329 1 2 16.753504926693985
pair_coeff 11 23 wf/cut 0.014557 6.60658239133453 1 2 19.819747174003588
pair_coeff 11 24 wf/cut 0.016204 6.210508609486856 1 2 18.631525828460568
pair_coeff 11 25 wf/cut 0.111774 6.647740379710509 1 2 19.943221139131527
pair_coeff 11 26 wf/cut 0.022804 5.890170182090268 1 2 17.670510546270805
pair_coeff 11 27 wf/cut 0.042909 6.151889183567281 1 2 18.455667550701843
pair_coeff 11 28 wf/cut 0.045937 6.3282208238107795 1 2 18.984662471432337
pair_coeff 11 29 wf/cut 0.152275 6.5927216895129135 1 2 19.77816506853874
pair_coeff 11 30 wf/cut 0.007874 6.397951767513159 1 2 19.193855302539475
pair_coeff 11 31 wf/cut 0.009366 6.548412328573101 1 2 19.645236985719304
pair_coeff 11 32 wf/cut 0.075415 6.370842118401069 1 2 19.112526355203208
pair_coeff 11 33 wf/cut 0.197999 6.75777413374384 1 2 20.27332240123152
pair_coeff 11 34 wf/cut 0.142635 6.541054552668633 1 2 19.623163658005897
pair_coeff 11 35 wf/cut 0.026934 5.956563720651988 1 2 17.869691161955963
pair_coeff 11 36 wf/cut 0.134101 6.395473237725452 1 2 19.186419713176356
pair_coeff 11 37 wf/cut 0.073215 6.193703302501737 1 2 18.58110990750521
pair_coeff 11 38 wf/cut 0.032992 6.148785435376327 1 2 18.446356306128983
pair_coeff 11 39 wf/cut 0.029687 6.110345071454451 1 2 18.331035214363354
pair_coeff 11 40 wf/cut 0.005696 6.607723261980873 1 2 19.823169785942618
pair_coeff 12 12 wf/cut 0.200448 6.277850874229409 1 2 18.833552622688227
pair_coeff 12 13 wf/cut 0.375372 6.671405311072043 1 2 20.01421593321613
pair_coeff 12 14 wf/cut 0.296045 6.4532756440329795 1 2 19.35982693209894
pair_coeff 12 15 wf/cut 0.131024 5.84255485528308 1 2 17.52766456584924
pair_coeff 12 16 wf/cut 0.283933 6.307431677259977 1 2 18.92229503177993
pair_coeff 12 17 wf/cut 0.197148 6.100591694847331 1 2 18.301775084541994
pair_coeff 12 18 wf/cut 0.139562 6.040345112977554 1 2 18.12103533893266
pair_coeff 12 19 wf/cut 0.134879 5.998852825433778 1 2 17.99655847630133
pair_coeff 12 20 wf/cut 0.100421 6.367152767929573 1 2 19.101458303788718
pair_coeff 12 21 wf/cut 0.113953 6.365699666568734 1 2 19.0970989997062
pair_coeff 12 22 wf/cut 0.133906 5.487109605448974 1 2 16.46132881634692
pair_coeff 12 23 wf/cut 0.109282 6.460110665288058 1 2 19.380331995864175
pair_coeff 12 24 wf/cut 0.110929 6.07371622854753 1 2 18.22114868564259
pair_coeff 12 25 wf/cut 0.206499 6.559327404195954 1 2 19.67798221258786
pair_coeff 12 26 wf/cut 0.117529 5.770434344200525 1 2 17.311303032601575
pair_coeff 12 27 wf/cut 0.137634 6.050878049577443 1 2 18.15263414873233
pair_coeff 12 28 wf/cut 0.140662 6.22811906216779 1 2 18.68435718650337
pair_coeff 12 29 wf/cut 0.247000 6.506235094735004 1 2 19.518705284205012
pair_coeff 12 30 wf/cut 0.102599 6.199847722340906 1 2 18.59954316702272
pair_coeff 12 31 wf/cut 0.104091 6.366663725733202 1 2 19.099991177199605
pair_coeff 12 32 wf/cut 0.170140 6.278875223812024 1 2 18.836625671436074
pair_coeff 12 33 wf/cut 0.292724 6.6723319742793255 1 2 20.016995922837978
pair_coeff 12 34 wf/cut 0.237360 6.454265231889239 1 2 19.362795695667717
pair_coeff 12 35 wf/cut 0.121659 5.8431832590102974 1 2 17.529549777030894
pair_coeff 12 36 wf/cut 0.228826 6.308421039847022 1 2 18.925263119541064
pair_coeff 12 37 wf/cut 0.167940 6.10158175427316 1 2 18.30474526281948
pair_coeff 12 38 wf/cut 0.127717 6.041063379946771 1 2 18.123190139840315
pair_coeff 12 39 wf/cut 0.124412 5.999536872422517 1 2 17.998610617267552
pair_coeff 12 40 wf/cut 0.100421 6.367152767929573 1 2 19.101458303788718
pair_coeff 13 13 wf/cut 0.550297 7.066547961746265 1 2 21.199643885238793
pair_coeff 13 14 wf/cut 0.470970 6.84798437757724 1 2 20.54395313273172
pair_coeff 13 15 wf/cut 0.305948 6.234139720557474 1 2 18.702419161672424
pair_coeff 13 16 wf/cut 0.458857 6.702091518082294 1 2 20.10627455424688
pair_coeff 13 17 wf/cut 0.372073 6.494164476750084 1 2 19.48249343025025
pair_coeff 13 18 wf/cut 0.314487 6.432174788842087 1 2 19.29652436652626
pair_coeff 13 19 wf/cut 0.309804 6.390531854157171 1 2 19.171595562471513
pair_coeff 13 20 wf/cut 0.275346 6.756032732095156 1 2 20.268098196285468
pair_coeff 13 21 wf/cut 0.288877 6.755817014102551 1 2 20.267451042307652
pair_coeff 13 22 wf/cut 0.308830 5.879425000161095 1 2 17.638275000483283
pair_coeff 13 23 wf/cut 0.284207 6.8497445004881925 1 2 20.549233501464578
pair_coeff 13 24 wf/cut 0.285853 6.4638463520895115 1 2 19.391539056268535
pair_coeff 13 25 wf/cut 0.381424 6.952910842994874 1 2 20.85873252898462
pair_coeff 13 26 wf/cut 0.292454 6.1613130283141055 1 2 18.483939084942318
pair_coeff 13 27 wf/cut 0.312558 6.442631932062835 1 2 19.327895796188507
pair_coeff 13 28 wf/cut 0.315587 6.619890395721167 1 2 19.8596711871635
pair_coeff 13 29 wf/cut 0.421925 6.900441239237516 1 2 20.701323717712548
pair_coeff 13 30 wf/cut 0.277524 6.589134834507833 1 2 19.7674045035235
pair_coeff 13 31 wf/cut 0.279016 6.755970194682537 1 2 20.267910584047613
pair_coeff 13 32 wf/cut 0.345065 6.671688068448729 1 2 20.015064205346185
pair_coeff 13 33 wf/cut 0.467649 7.066966231238362 1 2 21.200898693715086
pair_coeff 13 34 wf/cut 0.412285 6.848368288265007 1 2 20.54510486479502
pair_coeff 13 35 wf/cut 0.296584 6.23425905911194 1 2 18.70277717733582
pair_coeff 13 36 wf/cut 0.403751 6.702459807412386 1 2 20.10737942223716
pair_coeff 13 37 wf/cut 0.342865 6.494438889291505 1 2 19.483316667874515
pair_coeff 13 38 wf/cut 0.302642 6.4323262444775215 1 2 19.296978733432564
pair_coeff 13 39 wf/cut 0.299337 6.3906653903753785 1 2 19.171996171126136
pair_coeff 13 40 wf/cut 0.275346 6.756032732095156 1 2 20.268098196285468
pair_coeff 14 14 wf/cut 0.391642 6.629549396410893 1 2 19.88864818923268
pair_coeff 14 15 wf/cut 0.226621 6.016400811210637 1 2 18.049202433631912
pair_coeff 14 16 wf/cut 0.379530 6.483674128071082 1 2 19.451022384213246
pair_coeff 14 17 wf/cut 0.292745 6.276026354822916 1 2 18.828079064468746
pair_coeff 14 18 wf/cut 0.235159 6.2144055979415755 1 2 18.643216793824728
pair_coeff 14 19 wf/cut 0.230476 6.172787382997035 1 2 18.518362148991105
pair_coeff 14 20 wf/cut 0.196018 6.538787910119839 1 2 19.616363730359517
pair_coeff 14 21 wf/cut 0.209550 6.538369107168012 1 2 19.615107321504034
pair_coeff 14 22 wf/cut 0.229503 5.661533193978743 1 2 16.98459958193623
pair_coeff 14 23 wf/cut 0.204879 6.632390006238709 1 2 19.89717001871613
pair_coeff 14 24 wf/cut 0.206526 6.246381672050424 1 2 18.73914501615127
pair_coeff 14 25 wf/cut 0.302096 6.734778137463742 1 2 20.204334412391226
pair_coeff 14 26 wf/cut 0.213126 5.94370434405314 1 2 17.831113032159422
pair_coeff 14 27 wf/cut 0.233231 6.2248725061501835 1 2 18.67461751845055
pair_coeff 14 28 wf/cut 0.236259 6.402145618033878 1 2 19.206436854101636
pair_coeff 14 29 wf/cut 0.342598 6.6821466956694 1 2 20.0464400870082
pair_coeff 14 30 wf/cut 0.198196 6.3718164337361864 1 2 19.11544930120856
pair_coeff 14 31 wf/cut 0.199688 6.538652708676239 1 2 19.61595812602872
pair_coeff 14 32 wf/cut 0.265737 6.453725824442914 1 2 19.361177473328745
pair_coeff 14 33 wf/cut 0.388321 6.848555261309869 1 2 20.545665783929607
pair_coeff 14 34 wf/cut 0.332957 6.630097176272377 1 2 19.89029152881713
pair_coeff 14 35 wf/cut 0.217256 6.0166118728379825 1 2 18.049835618513946
pair_coeff 14 36 wf/cut 0.324423 6.484210545760694 1 2 19.45263163728208
pair_coeff 14 37 wf/cut 0.263537 6.276464594313065 1 2 18.829393782939196
pair_coeff 14 38 wf/cut 0.223314 6.2146578822218475 1 2 18.643973646665543
pair_coeff 14 39 wf/cut 0.220009 6.173021960210248 1 2 18.51906588063074
pair_coeff 14 40 wf/cut 0.196018 6.538787910119839 1 2 19.616363730359517
pair_coeff 15 15 wf/cut 0.061600 5.412669704115792 1 2 16.238009112347374
pair_coeff 15 16 wf/cut 0.214509 5.870633388669294 1 2 17.61190016600788
pair_coeff 15 17 wf/cut 0.127724 5.665328065098679 1 2 16.99598419529604
pair_coeff 15 18 wf/cut 0.070138 5.60931576883087 1 2 16.82794730649261
pair_coeff 15 19 wf/cut 0.065455 5.568478936337624 1 2 16.705436809012873
pair_coeff 15 20 wf/cut 0.030997 5.95253426830798 1 2 17.857602804923943
pair_coeff 15 21 wf/cut 0.044529 5.941730116730399 1 2 17.8251903501912
pair_coeff 15 22 wf/cut 0.064482 5.055066526249052 1 2 15.165199578747156
pair_coeff 15 23 wf/cut 0.039858 6.0388189375203165 1 2 18.116456812560948
pair_coeff 15 24 wf/cut 0.041505 5.650569731939204 1 2 16.951709195817614
pair_coeff 15 25 wf/cut 0.137075 6.123955851741878 1 2 18.371867555225634
pair_coeff 15 26 wf/cut 0.048105 5.343933138992498 1 2 16.031799416977496
pair_coeff 15 27 wf/cut 0.068210 5.620115241697351 1 2 16.860345725092053
pair_coeff 15 28 wf/cut 0.071238 5.79714638380999 1 2 17.39143915142997
pair_coeff 15 29 wf/cut 0.177576 6.069943102760143 1 2 18.20982930828043
pair_coeff 15 30 wf/cut 0.033175 5.7826589372196375 1 2 17.347976811658913
pair_coeff 15 31 wf/cut 0.034667 5.948302390882524 1 2 17.84490717264757
pair_coeff 15 32 wf/cut 0.100716 5.845003436795657 1 2 17.53501031038697
pair_coeff 15 33 wf/cut 0.223300 6.235536027214636 1 2 18.706608081643907
pair_coeff 15 34 wf/cut 0.167936 6.018117533790267 1 2 18.054352601370802
pair_coeff 15 35 wf/cut 0.052235 5.415473890209146 1 2 16.246421670627438
pair_coeff 15 36 wf/cut 0.159402 5.872398100194439 1 2 17.617194300583318
pair_coeff 15 37 wf/cut 0.098516 5.667732143982081 1 2 17.003196431946243
pair_coeff 15 38 wf/cut 0.058293 5.612162941341123 1 2 16.83648882402337
pair_coeff 15 39 wf/cut 0.054988 5.571364187563539 1 2 16.714092562690617
pair_coeff 15 40 wf/cut 0.030997 5.95253426830798 1 2 17.857602804923943
pair_coeff 16 16 wf/cut 0.027216 6.337782403912046 1 2 19.01334721173614
pair_coeff 16 17 wf/cut 0.280633 6.130180422228775 1 2 18.390541266686323
pair_coeff 16 18 wf/cut 0.223047 6.068649252074198 1 2 18.205947756222592
pair_coeff 16 19 wf/cut 0.218364 6.027019005823624 1 2 18.081057017470872
pair_coeff 16 20 wf/cut 0.183906 6.393147480752069 1 2 19.179442442256207
pair_coeff 16 21 wf/cut 0.197438 6.392683938124808 1 2 19.178051814374424
pair_coeff 16 22 wf/cut 0.217391 5.515750877499212 1 2 16.547252632497635
pair_coeff 16 23 wf/cut 0.192767 6.486724075272986 1 2 19.46017222581896
pair_coeff 16 24 wf/cut 0.194414 6.100672500483568 1 2 18.302017501450702
pair_coeff 16 25 wf/cut 0.289984 6.588935233441612 1 2 19.766805700324838
pair_coeff 16 26 wf/cut 0.201014 5.79796325726322 1 2 17.39388977178966
pair_coeff 16 27 wf/cut 0.221118 6.0791010484529915 1 2 18.237303145358975
pair_coeff 16 28 wf/cut 0.224147 6.256376087421608 1 2 18.769128262264825
pair_coeff 16 29 wf/cut 0.330485 6.536274979404401 1 2 19.608824938213203
pair_coeff 16 30 wf/cut 0.186084 6.226140636452508 1 2 18.678421909357525
pair_coeff 16 31 wf/cut 0.187576 6.392997387325535 1 2 19.178992161976602
pair_coeff 16 32 wf/cut 0.253625 6.307912958718467 1 2 18.9237388761554
pair_coeff 16 33 wf/cut 0.376209 6.702684222295407 1 2 20.10805266688622
pair_coeff 16 34 wf/cut 0.320845 6.484248553549719 1 2 19.452745660649157
pair_coeff 16 35 wf/cut 0.205144 5.870864049052838 1 2 17.612592147158516
pair_coeff 16 36 wf/cut 0.023134 6.338345846056568 1 2 19.015037538169704
pair_coeff 16 37 wf/cut 0.251425 6.130649043241044 1 2 18.391947129723132
pair_coeff 16 38 wf/cut 0.211202 6.0689241564117395 1 2 18.20677246923522
pair_coeff 16 39 wf/cut 0.207897 6.027275074473145 1 2 18.081825223419436
pair_coeff 16 40 wf/cut 0.183906 6.393147480752069 1 2 19.179442442256207
pair_coeff 17 17 wf/cut 0.193849 5.9233491242788805 1 2 17.770047372836643
pair_coeff 17 18 wf/cut 0.136263 5.8630821184928195 1 2 17.58924635547846
pair_coeff 17 19 wf/cut 0.131580 5.821644218417775 1 2 17.464932655253325
pair_coeff 17 20 wf/cut 0.097122 6.1899864646586105 1 2 18.569959393975832
pair_coeff 17 21 wf/cut 0.110653 6.188546099325202 1 2 18.565638297975607
pair_coeff 17 22 wf/cut 0.130606 5.30983190747035 1 2 15.929495722411051
pair_coeff 17 23 wf/cut 0.105983 6.282921319282791 1 2 18.848763957848373
pair_coeff 17 24 wf/cut 0.107629 5.896489952968157 1 2 17.68946985890447
pair_coeff 17 25 wf/cut 0.203200 6.382089400238762 1 2 19.146268200716285
pair_coeff 17 26 wf/cut 0.114230 5.59320394576633 1 2 16.77961183729899
pair_coeff 17 27 wf/cut 0.134334 5.873649240456693 1 2 17.62094772137008
pair_coeff 17 28 wf/cut 0.137363 6.050910374214647 1 2 18.152731122643942
pair_coeff 17 29 wf/cut 0.243701 6.328963417719822 1 2 18.986890253159466
pair_coeff 17 30 wf/cut 0.099300 6.022666584916778 1 2 18.067999754750335
pair_coeff 17 31 wf/cut 0.100792 6.189544117007458 1 2 18.568632351022373
pair_coeff 17 32 wf/cut 0.166841 6.101625831837799 1 2 18.304877495513395
pair_coeff 17 33 wf/cut 0.289424 6.495083547619462 1 2 19.485250642858386
pair_coeff 17 34 wf/cut 0.234061 6.277022750655092 1 2 18.831068251965277
pair_coeff 17 35 wf/cut 0.118359 5.665971807159278 1 2 16.997915421477835
pair_coeff 17 36 wf/cut 0.225527 6.131165252735328 1 2 18.393495758205983
pair_coeff 17 37 wf/cut 0.164641 5.924348407080925 1 2 17.773045221242775
pair_coeff 17 38 wf/cut 0.124417 5.863848431499796 1 2 17.591545294499387
pair_coeff 17 39 wf/cut 0.121113 5.822344488616284 1 2 17.46703346584885
pair_coeff 17 40 wf/cut 0.097122 6.1899864646586105 1 2 18.569959393975832
pair_coeff 18 18 wf/cut 0.078677 5.806155150598376 1 2 17.41846545179513
pair_coeff 18 19 wf/cut 0.073994 5.765149033334852 1 2 17.29544710000456
pair_coeff 18 20 wf/cut 0.039536 6.143860896897243 1 2 18.431582690691727
pair_coeff 18 21 wf/cut 0.053067 6.136530836242518 1 2 18.409592508727556
pair_coeff 18 22 wf/cut 0.073020 5.2521394224496145 1 2 15.756418267348844
pair_coeff 18 23 wf/cut 0.048396 6.232722071931244 1 2 18.698166215793734
pair_coeff 18 24 wf/cut 0.050043 5.845049472828402 1 2 17.535148418485207
pair_coeff 18 25 wf/cut 0.145613 6.3217567788528175 1 2 18.965270336558454
pair_coeff 18 26 wf/cut 0.056644 5.539473279208256 1 2 16.618419837624767
pair_coeff 18 27 wf/cut 0.076748 5.816985496228361 1 2 17.450956488685083
pair_coeff 18 28 wf/cut 0.079776 5.993977654615634 1 2 17.9819329638469
pair_coeff 18 29 wf/cut 0.186115 6.267859616819192 1 2 18.803578850457576
pair_coeff 18 30 wf/cut 0.041714 5.974983307333975 1 2 17.924949922001925
pair_coeff 18 31 wf/cut 0.043205 6.1411099770057245 1 2 18.42332993101717
pair_coeff 18 32 wf/cut 0.109254 6.042493928204347 1 2 18.12748178461304
pair_coeff 18 33 wf/cut 0.231838 6.433519247230287 1 2 19.300557741690863
pair_coeff 18 34 wf/cut 0.176474 6.216033392034327 1 2 18.648100176102982
pair_coeff 18 35 wf/cut 0.060773 5.611389850569513 1 2 16.834169551708538
pair_coeff 18 36 wf/cut 0.167940 6.070294170144763 1 2 18.21088251043429
pair_coeff 18 37 wf/cut 0.107055 5.865217375098184 1 2 17.595652125294553
pair_coeff 18 38 wf/cut 0.066831 5.808437279092397 1 2 17.425311837277192
pair_coeff 18 39 wf/cut 0.063527 5.767428643819603 1 2 17.302285931458808
pair_coeff 18 40 wf/cut 0.039536 6.143860896897243 1 2 18.431582690691727
pair_coeff 19 19 wf/cut 0.069311 5.724362787504792 1 2 17.173088362514378
pair_coeff 19 20 wf/cut 0.034853 6.10586575299424 1 2 18.31759725898272
pair_coeff 19 21 wf/cut 0.048384 6.0967512192398505 1 2 18.290253657719553
pair_coeff 19 22 wf/cut 0.068337 5.211108138159037 1 2 15.633324414477112
pair_coeff 19 23 wf/cut 0.043714 6.1934329156331 1 2 18.5802987468993
pair_coeff 19 24 wf/cut 0.045360 5.805442925019495 1 2 17.416328775058485
pair_coeff 19 25 wf/cut 0.140930 6.280274061428144 1 2 18.84082218428443
pair_coeff 19 26 wf/cut 0.051961 5.499319146540279 1 2 16.497957439620837
pair_coeff 19 27 wf/cut 0.072065 5.776024303801226 1 2 17.328072911403677
pair_coeff 19 28 wf/cut 0.075093 5.953096206763187 1 2 17.85928862028956
pair_coeff 19 29 wf/cut 0.181432 6.226290621468162 1 2 18.678871864404485
pair_coeff 19 30 wf/cut 0.037031 5.936496588820257 1 2 17.80948976646077
pair_coeff 19 31 wf/cut 0.038522 6.10236911417194 1 2 18.30710734251582
pair_coeff 19 32 wf/cut 0.104571 6.001202451726246 1 2 18.003607355178737
pair_coeff 19 33 wf/cut 0.227155 6.391918936768799 1 2 19.175756810306396
pair_coeff 19 34 wf/cut 0.171791 6.174477574070478 1 2 18.52343272221143
pair_coeff 19 35 wf/cut 0.056090 5.571011278043507 1 2 16.71303383413052
pair_coeff 19 36 wf/cut 0.163258 6.028753613252821 1 2 18.086260839758463
pair_coeff 19 37 wf/cut 0.102372 5.823949131867462 1 2 17.471847395602385
pair_coeff 19 38 wf/cut 0.062148 5.767856883865312 1 2 17.303570651595933
pair_coeff 19 39 wf/cut 0.058844 5.726983480603789 1 2 17.18095044181137
pair_coeff 19 40 wf/cut 0.034853 6.10586575299424 1 2 18.31759725898272
pair_coeff 20 21 wf/cut 0.013926 6.5199210046589675 1 2 19.5597630139769
pair_coeff 20 22 wf/cut 0.033879 5.587459907599181 1 2 16.76237972279754
pair_coeff 20 23 wf/cut 0.009256 6.649574443493311 1 2 19.948723330479933
pair_coeff 20 24 wf/cut 0.010902 6.242374503621665 1 2 18.727123510864995
pair_coeff 20 25 wf/cut 0.106472 6.648355967009086 1 2 19.945067901027258
pair_coeff 20 26 wf/cut 0.017503 5.903567074401621 1 2 17.71070122320486
pair_coeff 20 27 wf/cut 0.037607 6.155943831058615 1 2 18.467831493175847
pair_coeff 20 28 wf/cut 0.040635 6.331503643570952 1 2 18.994510930712856
pair_coeff 20 29 wf/cut 0.146974 6.593018960515583 1 2 19.77905688154675
pair_coeff 20 32 wf/cut 0.070113 6.372029116976672 1 2 19.116087350930016
pair_coeff 20 33 wf/cut 0.192697 6.757970683221281 1 2 20.273912049663842
pair_coeff 20 34 wf/cut 0.137333 6.5414250271565235 1 2 19.62427508146957
pair_coeff 20 35 wf/cut 0.021632 5.967018638311549 1 2 17.901055914934645
pair_coeff 20 36 wf/cut 0.128800 6.395882535691026 1 2 19.187647607073078
pair_coeff 20 37 wf/cut 0.067914 6.194931490620908 1 2 18.584794471862722
pair_coeff 20 38 wf/cut 0.027690 6.155796177211015 1 2 18.467388531633045
pair_coeff 20 39 wf/cut 0.024386 6.119051758363574 1 2 18.357155275090722
pair_coeff 21 21 wf/cut 0.027458 6.480069420606985 1 2 19.440208261820956
pair_coeff 21 22 wf/cut 0.047411 5.581642130693901 1 2 16.7449263920817
pair_coeff 21 23 wf/cut 0.022787 6.583002517343036 1 2 19.74900755202911
pair_coeff 21 24 wf/cut 0.024433 6.191552500203247 1 2 18.574657500609742
pair_coeff 21 25 wf/cut 0.120004 6.646999738911693 1 2 19.94099921673508
pair_coeff 21 26 wf/cut 0.031034 5.878598106878971 1 2 17.63579432063691
pair_coeff 21 27 wf/cut 0.051138 6.1478586796466335 1 2 18.443576038939902
pair_coeff 21 28 wf/cut 0.054167 6.324516380690015 1 2 18.973549142070045
pair_coeff 21 29 wf/cut 0.160505 6.592313711480712 1 2 19.776941134442136
pair_coeff 21 30 wf/cut 0.016104 6.340969704607503 1 2 19.02290911382251
pair_coeff 21 31 wf/cut 0.017596 6.5013402123206046 1 2 19.504020636961812
pair_coeff 21 32 wf/cut 0.083645 6.369348945541728 1 2 19.108046836625185
pair_coeff 21 33 wf/cut 0.206229 6.757540572332879 1 2 20.27262171699864
pair_coeff 21 34 wf/cut 0.150865 6.540596793679068 1 2 19.621790381037204
pair_coeff 21 35 wf/cut 0.035164 5.947844531230358 1 2 17.843533593691074
pair_coeff 21 36 wf/cut 0.142331 6.39500222582037 1 2 19.18500667746111
pair_coeff 21 37 wf/cut 0.081445 6.192166186380409 1 2 18.57649855914123
pair_coeff 21 38 wf/cut 0.041222 6.142414836822247 1 2 18.42724451046674
pair_coeff 21 39 wf/cut 0.037917 6.102763659737872 1 2 18.308290979213616
pair_coeff 21 40 wf/cut 0.013926 6.5199210046589675 1 2 19.5597630139769
pair_coeff 22 22 wf/cut 0.067364 4.698227190160832 1 2 14.094681570482496
pair_coeff 22 23 wf/cut 0.042740 5.6772849911904 1 2 17.0318549735712
pair_coeff 22 24 wf/cut 0.044387 5.289807269665101 1 2 15.869421808995302
pair_coeff 22 25 wf/cut 0.139957 5.768554114508845 1 2 17.305662343526535
pair_coeff 22 26 wf/cut 0.050987 4.984686027270456 1 2 14.954058081811368
pair_coeff 22 27 wf/cut 0.071091 5.262912382415455 1 2 15.788737147246366
pair_coeff 22 28 wf/cut 0.074120 5.439975772862831 1 2 16.319927318588494
pair_coeff 22 29 wf/cut 0.180458 5.714850862757114 1 2 17.144552588271342
pair_coeff 22 30 wf/cut 0.036057 5.418902704026212 1 2 16.256708112078634
pair_coeff 22 31 wf/cut 0.037549 5.585489758070483 1 2 16.756469274211447
pair_coeff 22 32 wf/cut 0.103598 5.489037080971375 1 2 16.467111242914125
pair_coeff 22 33 wf/cut 0.226182 5.8806376350894025 1 2 17.641912905268207
pair_coeff 22 34 wf/cut 0.170818 5.662987686021554 1 2 16.988963058064662
pair_coeff 22 35 wf/cut 0.055117 5.056931123036382 1 2 15.170793369109145
pair_coeff 22 36 wf/cut 0.162284 5.517215784587296 1 2 16.551647353761886
pair_coeff 22 37 wf/cut 0.101398 5.311696859115723 1 2 15.935090577347168
pair_coeff 22 38 wf/cut 0.061175 5.254183030641423 1 2 15.762549091924269
pair_coeff 22 39 wf/cut 0.057870 5.213062357159386 1 2 15.639187071478158
pair_coeff 22 40 wf/cut 0.033879 5.587459907599181 1 2 16.76237972279754
pair_coeff 23 23 wf/cut 0.013420 6.688853536606121 1 2 20.066560609818364
pair_coeff 23 24 wf/cut 0.019763 6.29527868599085 1 2 18.885836057972547
pair_coeff 23 25 wf/cut 0.085206 6.741392723436803 1 2 20.22417817031041
pair_coeff 23 26 wf/cut 0.026364 5.978305270632397 1 2 17.93491581189719
pair_coeff 23 27 wf/cut 0.000342 6.244253298502354 1 2 18.732759895507062
pair_coeff 23 28 wf/cut 0.000366 6.4204818546224995 1 2 19.261445563867497
pair_coeff 23 29 wf/cut 0.071890 6.686432938070228 1 2 20.059298814210685
pair_coeff 23 30 wf/cut 0.011434 6.460111302128625 1 2 19.380333906385875
pair_coeff 23 31 wf/cut 0.012925 6.617996254538358 1 2 19.853988763615074
pair_coeff 23 32 wf/cut 0.078974 6.4641118645001 1 2 19.3923355935003
pair_coeff 23 33 wf/cut 0.073358 6.85155566549562 1 2 20.55466699648686
pair_coeff 23 34 wf/cut 0.080693 6.634779187210656 1 2 19.90433756163197
pair_coeff 23 35 wf/cut 0.030493 6.046847416569171 1 2 18.14054224970751
pair_coeff 23 36 wf/cut 0.061166 6.489185414364156 1 2 19.467556243092467
pair_coeff 23 37 wf/cut 0.076775 6.2869559403051 1 2 18.860867820915303
pair_coeff 23 38 wf/cut 0.036551 6.240136548485556 1 2 18.72040964545667
pair_coeff 23 39 wf/cut 0.033247 6.2011686854634664 1 2 18.6035060563904
pair_coeff 23 40 wf/cut 0.009256 6.649574443493311 1 2 19.948723330479933
pair_coeff 24 24 wf/cut 0.021409 5.902825373061459 1 2 17.708476119184375
pair_coeff 24 25 wf/cut 0.116980 6.355020618222843 1 2 19.065061854668528
pair_coeff 24 26 wf/cut 0.028010 5.588184701124206 1 2 16.764554103372618
pair_coeff 24 27 wf/cut 0.048114 5.856453272809193 1 2 17.56935981842758
pair_coeff 24 28 wf/cut 0.051143 6.03282984385001 1 2 18.09848953155003
pair_coeff 24 29 wf/cut 0.157481 6.300272873273843 1 2 18.90081861982153
pair_coeff 24 30 wf/cut 0.013080 6.05885560137348 1 2 18.17656680412044
pair_coeff 24 31 wf/cut 0.014572 6.219293562690735 1 2 18.657880688072204
pair_coeff 24 32 wf/cut 0.080621 6.077365593674358 1 2 18.232096781023074
pair_coeff 24 33 wf/cut 0.203205 6.465539023765016 1 2 19.396617071295047
pair_coeff 24 34 wf/cut 0.147841 6.248599086448351 1 2 18.745797259345053
pair_coeff 24 35 wf/cut 0.032140 5.6574738585901345 1 2 16.972421575770404
pair_coeff 24 36 wf/cut 0.139307 6.102951668547555 1 2 18.308855005642666
pair_coeff 24 37 wf/cut 0.078421 5.900160965208208 1 2 17.700482895624624
pair_coeff 24 38 wf/cut 0.038198 5.85153222065546 1 2 17.55459666196638
pair_coeff 24 39 wf/cut 0.034893 5.812153931855011 1 2 17.436461795565034
pair_coeff 24 40 wf/cut 0.010902 6.242374503621665 1 2 18.727123510864995
pair_coeff 25 25 wf/cut 0.062978 6.840818860381698 1 2 20.522456581145093
pair_coeff 25 26 wf/cut 0.123581 6.051811079871612 1 2 18.155433239614837
pair_coeff 25 27 wf/cut 0.001064 6.332285213812248 1 2 18.996855641436742
pair_coeff 25 28 wf/cut 0.001085 6.509542326637676 1 2 19.528626979913028
pair_coeff 25 29 wf/cut 0.425474 6.7877218996841355 1 2 20.363165699052406
pair_coeff 25 30 wf/cut 0.108651 6.481102402445426 1 2 19.44330720733628
pair_coeff 25 31 wf/cut 0.110142 6.647901648052044 1 2 19.94370494415613
pair_coeff 25 32 wf/cut 0.176191 6.560327886240045 1 2 19.680983658720134
pair_coeff 25 33 wf/cut 0.484160 6.953839371357665 1 2 20.861518114072993
pair_coeff 25 34 wf/cut 0.381459 6.735769622233203 1 2 20.20730886669961
pair_coeff 25 35 wf/cut 0.127710 6.1245540687340725 1 2 18.37366220620222
pair_coeff 25 36 wf/cut 0.086889 6.589926019306955 1 2 19.769778057920867
pair_coeff 25 37 wf/cut 0.173991 6.38305646617526 1 2 19.14916939852578
pair_coeff 25 38 wf/cut 0.133768 6.322442926130092 1 2 18.967328778390275
pair_coeff 25 39 wf/cut 0.130463 6.280926022691235 1 2 18.842778068073706
pair_coeff 25 40 wf/cut 0.106472 6.648355967009086 1 2 19.945067901027258
pair_coeff 26 26 wf/cut 0.034611 5.278051554722805 1 2 15.834154664168416
pair_coeff 26 27 wf/cut 0.054715 5.550632394717641 1 2 16.651897184152922
pair_coeff 26 28 wf/cut 0.057743 5.727313013729271 1 2 17.18193904118781
pair_coeff 26 29 wf/cut 0.164082 5.997401234701861 1 2 17.99220370410558
pair_coeff 26 30 wf/cut 0.019681 5.729200436106479 1 2 17.187601308319437
pair_coeff 26 31 wf/cut 0.021172 5.893502125092778 1 2 17.680506375278334
pair_coeff 26 32 wf/cut 0.087222 5.77355467816977 1 2 17.32066403450931
pair_coeff 26 33 wf/cut 0.209805 6.162846524069043 1 2 18.48853957220713
pair_coeff 26 34 wf/cut 0.154442 5.945670315140756 1 2 17.837010945422268
pair_coeff 26 35 wf/cut 0.038740 5.3486854588231765 1 2 16.04605637646953
pair_coeff 26 36 wf/cut 0.145908 5.799973083941243 1 2 17.39991925182373
pair_coeff 26 37 wf/cut 0.085022 5.596251927245512 1 2 16.788755781736537
pair_coeff 26 38 wf/cut 0.044798 5.544164768287125 1 2 16.632494304861375
pair_coeff 26 39 wf/cut 0.041494 5.504054682438701 1 2 16.512164047316105
pair_coeff 26 40 wf/cut 0.017503 5.903567074401621 1 2 17.71070122320486
pair_coeff 27 27 wf/cut 0.055422 5.8277356350076115 1 2 17.483206905022833
pair_coeff 27 28 wf/cut 0.057461 6.0048083393750415 1 2 18.014425018125124
pair_coeff 27 29 wf/cut 0.184186 6.278368151196274 1 2 18.83510445358882
pair_coeff 27 30 wf/cut 0.039785 5.986861716352022 1 2 17.960585149056065
pair_coeff 27 31 wf/cut 0.041277 6.152881477214971 1 2 18.458644431644913
pair_coeff 27 32 wf/cut 0.107326 6.053140955180234 1 2 18.159422865540705
pair_coeff 27 33 wf/cut 0.229910 6.444000765960297 1 2 19.33200229788089
pair_coeff 27 34 wf/cut 0.174546 6.226529663564308 1 2 18.679588990692924
pair_coeff 27 35 wf/cut 0.058845 5.622457081906772 1 2 16.867371245720314
pair_coeff 27 36 wf/cut 0.001228 6.080799532766481 1 2 18.242398598299445
pair_coeff 27 37 wf/cut 0.105126 5.875867449320084 1 2 17.627602347960252
pair_coeff 27 38 wf/cut 0.064903 5.819413545043322 1 2 17.458240635129968
pair_coeff 27 39 wf/cut 0.061598 5.778457730344957 1 2 17.335373191034872
pair_coeff 27 40 wf/cut 0.037607 6.155943831058615 1 2 18.467831493175847
pair_coeff 28 28 wf/cut 0.059908 6.1818125994432265 1 2 18.54543779832968
pair_coeff 28 29 wf/cut 0.187215 6.4556028384801145 1 2 19.366808515440344
pair_coeff 28 30 wf/cut 0.042814 6.162677260323304 1 2 18.488031780969912
pair_coeff 28 31 wf/cut 0.044305 6.329122536684595 1 2 18.987367610053788
pair_coeff 28 32 wf/cut 0.110354 6.230341958421634 1 2 18.691025875264902
pair_coeff 28 33 wf/cut 0.232938 6.621259842822526 1 2 19.863779528467578
pair_coeff 28 34 wf/cut 0.177574 6.403800703379438 1 2 19.211402110138312
pair_coeff 28 35 wf/cut 0.061873 5.7993639894571976 1 2 17.39809196837159
pair_coeff 28 36 wf/cut 0.001252 6.258048801889918 1 2 18.774146405669754
pair_coeff 28 37 wf/cut 0.108154 6.053088642675554 1 2 18.159265928026663
pair_coeff 28 38 wf/cut 0.067931 5.9963870692049515 1 2 17.989161207614856
pair_coeff 28 39 wf/cut 0.064626 5.955407688864699 1 2 17.866223066594095
pair_coeff 28 40 wf/cut 0.040635 6.331503643570952 1 2 18.994510930712856
pair_coeff 29 29 wf/cut 0.293553 6.734901221669089 1 2 20.204703665007266
pair_coeff 29 30 wf/cut 0.149152 6.425928662140226 1 2 19.277785986420678
pair_coeff 29 31 wf/cut 0.150644 6.592808608254519 1 2 19.77842582476356
pair_coeff 29 32 wf/cut 0.216693 6.5069139355650485 1 2 19.520741806695145
pair_coeff 29 33 wf/cut 0.339277 6.901174934210456 1 2 20.703524802631367
pair_coeff 29 34 wf/cut 0.283913 6.682893550119813 1 2 20.048680650359437
pair_coeff 29 35 wf/cut 0.168212 6.070294170144763 1 2 18.21088251043429
pair_coeff 29 36 wf/cut 0.275379 6.53700493974828 1 2 19.61101481924484
pair_coeff 29 37 wf/cut 0.214493 6.329613164394258 1 2 18.988839493182773
pair_coeff 29 38 wf/cut 0.174270 6.268290266697097 1 2 18.80487080009129
pair_coeff 29 39 wf/cut 0.170965 6.226677571408917 1 2 18.68003271422675
pair_coeff 29 40 wf/cut 0.146974 6.593018960515583 1 2 19.77905688154675
pair_coeff 30 31 wf/cut 0.006243 6.436867325811939 1 2 19.310601977435816
pair_coeff 30 32 wf/cut 0.072292 6.2043654791136875 1 2 18.613096437341063
pair_coeff 30 33 wf/cut 0.194875 6.590992227279316 1 2 19.77297668183795
pair_coeff 30 34 wf/cut 0.139512 6.374322689731052 1 2 19.122968069193156
pair_coeff 30 35 wf/cut 0.023810 5.794680761693587 1 2 17.38404228508076
pair_coeff 30 36 wf/cut 0.130978 6.228734363673756 1 2 18.68620309102127
pair_coeff 30 37 wf/cut 0.070092 6.027237821338098 1 2 18.081713464014296
pair_coeff 30 38 wf/cut 0.029868 5.985230649978958 1 2 17.955691949936874
pair_coeff 30 39 wf/cut 0.026564 5.947631895281645 1 2 17.842895685844933
pair_coeff 31 31 wf/cut 0.007734 6.567831037515117 1 2 19.703493112545353
pair_coeff 31 32 wf/cut 0.073783 6.371180012524027 1 2 19.11354003757208
pair_coeff 31 33 wf/cut 0.196367 6.757844212311977 1 2 20.273532636935933
pair_coeff 31 34 wf/cut 0.141003 6.541152469250684 1 2 19.623457407752053
pair_coeff 31 35 wf/cut 0.025302 5.958948966149641 1 2 17.87684689844892
pair_coeff 31 36 wf/cut 0.132469 6.395617784448214 1 2 19.18685335334464
pair_coeff 31 37 wf/cut 0.071583 6.194052355515639 1 2 18.58215706654692
pair_coeff 31 38 wf/cut 0.031360 6.150442231391871 1 2 18.451326694175613
pair_coeff 31 39 wf/cut 0.028055 6.1123674095484715 1 2 18.337102228645414
pair_coeff 32 32 wf/cut 0.139832 6.280338147956703 1 2 18.841014443870108
pair_coeff 32 33 wf/cut 0.262416 6.672807379130834 1 2 20.018422137392502
pair_coeff 32 34 wf/cut 0.207052 6.454996866244807 1 2 19.364990598734423
pair_coeff 32 35 wf/cut 0.091351 5.846082838683163 1 2 17.53824851604949
pair_coeff 32 36 wf/cut 0.198518 6.309181376440496 1 2 18.92754412932149
pair_coeff 32 37 wf/cut 0.137633 6.103047888395006 1 2 18.30914366518502
pair_coeff 32 38 wf/cut 0.097409 6.043739153604026 1 2 18.131217460812078
pair_coeff 32 39 wf/cut 0.094104 6.002359484884067 1 2 18.007078454652202
pair_coeff 32 40 wf/cut 0.070113 6.372029116976672 1 2 19.116087350930016
pair_coeff 33 33 wf/cut 0.385000 7.067563273437359 1 2 21.202689820312077
pair_coeff 33 34 wf/cut 0.329636 6.849136659067028 1 2 20.547409977201085
pair_coeff 33 35 wf/cut 0.213935 6.235761878631987 1 2 18.70728563589596
pair_coeff 33 36 wf/cut 0.321102 6.703247958074066 1 2 20.109743874222197
pair_coeff 33 37 wf/cut 0.260216 6.49554680247315 1 2 19.48664040741945
pair_coeff 33 38 wf/cut 0.219993 6.433800819712532 1 2 19.3014024591376
pair_coeff 33 39 wf/cut 0.216688 6.3921696304391835 1 2 19.17650889131755
pair_coeff 33 40 wf/cut 0.192697 6.757970683221281 1 2 20.273912049663842
pair_coeff 34 34 wf/cut 0.274272 6.630885251270346 1 2 19.892655753811038
pair_coeff 34 35 wf/cut 0.158571 6.018506537122348 1 2 18.055519611367043
pair_coeff 34 36 wf/cut 0.265738 6.485029527646095 1 2 19.455088582938284
pair_coeff 34 37 wf/cut 0.204852 6.27772691468288 1 2 18.83318074404864
pair_coeff 34 38 wf/cut 0.164629 6.216488307385695 1 2 18.649464922157083
pair_coeff 34 39 wf/cut 0.161324 6.17490549231641 1 2 18.52471647694923
pair_coeff 34 40 wf/cut 0.137333 6.5414250271565235 1 2 19.62427508146957
pair_coeff 35 35 wf/cut 0.042870 5.4194558891562785 1 2 16.258367667468836
pair_coeff 35 36 wf/cut 0.150037 5.8728226163551005 1 2 17.6184678490653
pair_coeff 35 37 wf/cut 0.089151 5.6688305293155095 1 2 17.006491587946527
pair_coeff 35 38 wf/cut 0.048928 5.615420402551611 1 2 16.846261207654834
pair_coeff 35 39 wf/cut 0.045623 5.575027083025114 1 2 16.725081249075345
pair_coeff 35 40 wf/cut 0.021632 5.967018638311549 1 2 17.901055914934645
pair_coeff 36 36 wf/cut 0.019052 6.339149093005715 1 2 19.017447279017144
pair_coeff 36 37 wf/cut 0.196319 6.131909094415353 1 2 18.39572728324606
pair_coeff 36 38 wf/cut 0.156095 6.07081046198845 1 2 18.21243138596535
pair_coeff 36 39 wf/cut 0.152791 6.029219810679759 1 2 18.087659432039278
pair_coeff 36 40 wf/cut 0.128800 6.395882535691026 1 2 19.187647607073078
pair_coeff 37 37 wf/cut 0.135433 5.925773208988131 1 2 17.777319626964392
pair_coeff 37 38 wf/cut 0.095209 5.866481553533799 1 2 17.599444660601396
pair_coeff 37 39 wf/cut 0.091905 5.82512551794993 1 2 17.47537655384979
pair_coeff 37 40 wf/cut 0.067914 6.194931490620908 1 2 18.584794471862722
pair_coeff 38 38 wf/cut 0.054986 5.811826808320624 1 2 17.43548042496187
pair_coeff 38 39 wf/cut 0.051681 5.771184604473262 1 2 17.313553813419787
pair_coeff 38 40 wf/cut 0.027690 6.155796177211015 1 2 18.467388531633045
pair_coeff 39 39 wf/cut 0.048377 5.730699270006254 1 2 17.192097810018762
pair_coeff 39 40 wf/cut 0.024386 6.119051758363574 1 2 18.357155275090722
pair_coeff 40 40 wf/cut 0.000395 6.921680089176746 1 11 20.76504026753024
pair_coeff 20 40 wf/cut 0.000395 6.921680089176746 1 11 20.76504026753024
pair_coeff 20 20 wf/cut 0.000395 6.921680089176746 1 11 20.76504026753024
pair_coeff 10 20 wf/cut 0.002986 6.718011650959061 1 4 20.154034952877183
pair_coeff 10 40 wf/cut 0.002986 6.718011650959061 1 4 20.154034952877183
pair_coeff 20 30 wf/cut 0.002573 6.745752996427961 1 4 20.237258989283884
pair_coeff 20 31 wf/cut 0.004064 6.883184689300606 1 4 20.649554067901818
pair_coeff 30 40 wf/cut 0.002573 6.745752996427961 1 4 20.237258989283884
pair_coeff 31 40 wf/cut 0.004064 6.883184689300606 1 4 20.649554067901818
pair_coeff 3 3 coul/debye 35.
pair_coeff 3 5 coul/debye 35.
pair_coeff 3 7 coul/debye 35.
pair_coeff 3 8 coul/debye 35.
pair_coeff 3 16 coul/debye 35.
pair_coeff 3 23 coul/debye 35.
pair_coeff 3 25 coul/debye 35.
pair_coeff 3 36 coul/debye 35.
pair_coeff 5 5 coul/debye 35.
pair_coeff 5 7 coul/debye 35.
pair_coeff 5 8 coul/debye 35.
pair_coeff 5 16 coul/debye 35.
pair_coeff 5 23 coul/debye 35.
pair_coeff 5 25 coul/debye 35.
pair_coeff 5 27 coul/debye 35.
pair_coeff 5 28 coul/debye 35.
pair_coeff 5 36 coul/debye 35.
pair_coeff 7 7 coul/debye 35.
pair_coeff 7 8 coul/debye 35.
pair_coeff 7 16 coul/debye 35.
pair_coeff 7 23 coul/debye 35.
pair_coeff 7 25 coul/debye 35.
pair_coeff 7 27 coul/debye 35.
pair_coeff 7 28 coul/debye 35.
pair_coeff 7 36 coul/debye 35.
pair_coeff 8 8 coul/debye 35.
pair_coeff 8 16 coul/debye 35.
pair_coeff 8 23 coul/debye 35.
pair_coeff 8 25 coul/debye 35.
pair_coeff 8 27 coul/debye 35.
pair_coeff 8 28 coul/debye 35.
pair_coeff 8 36 coul/debye 35.
pair_coeff 16 16 coul/debye 35.
pair_coeff 16 23 coul/debye 35.
pair_coeff 16 25 coul/debye 35.
pair_coeff 16 27 coul/debye 35.
pair_coeff 16 28 coul/debye 35.
pair_coeff 16 36 coul/debye 35.
pair_coeff 23 23 coul/debye 35.
pair_coeff 23 25 coul/debye 35.
pair_coeff 23 36 coul/debye 35.
pair_coeff 25 25 coul/debye 35.
pair_coeff 25 27 coul/debye 35.
pair_coeff 25 28 coul/debye 35.
pair_coeff 25 36 coul/debye 35.
pair_coeff 27 27 coul/debye 35.
pair_coeff 27 28 coul/debye 35.
pair_coeff 27 36 coul/debye 35.
pair_coeff 28 28 coul/debye 35.
pair_coeff 28 36 coul/debye 35.
pair_coeff 36 36 coul/debye 35.
pair_coeff 3 27 coul/debye 35.
pair_coeff 3 28 coul/debye 35.
pair_coeff 23 27 coul/debye 35.
pair_coeff 23 28 coul/debye 35.

special_bonds fene
Finding 1-2 1-3 1-4 neighbors ...
  special bond factors lj:    0        1        1       
  special bond factors coul:  0        1        1       
     2 = max # of 1-2 neighbors
     6 = max # of special neighbors
  special bonds CPU = 0.000 seconds
neighbor  3.5 multi
neigh_modify  every 10 delay 0

comm_style    tiled

timer timeout 35:50:00
New timer settings: style=normal  mode=nosync  timeout=11:50:00

velocity      all create $T 494211
velocity      all create 335 494211
fix           fxnve   all nve
fix           fxlange all langevin $T $T 40000.0 32784
fix           fxlange all langevin 335 $T 40000.0 32784
fix           fxlange all langevin 335 335 40000.0 32784

dump          1 all custom 100000 $d-$T.xyz id mol type q xu yu zu
dump          1 all custom 100000 TIA_WT-$T.xyz id mol type q xu yu zu
dump          1 all custom 100000 TIA_WT-335.xyz id mol type q xu yu zu
dump_modify   1 sort id

#compute       rad all gyration
#compute       dis all pair/local dist
#compute       maximo all reduce max c_dis
#compute       mean all reduce ave c_dis

thermo        1000000
thermo_style  custom step pe temp  press ke lx ly lz pzz  spcpu density
thermo_modify flush yes

restart      10000000 restart$T
restart      10000000 restart335

####Minimization

timestep 0.01
run 2000
Neighbor list info ...
  update every 10 steps, delay 0 steps, check yes
  max neighbors/atom: 2000, page size: 100000
  master list distance cutoff = 38.5
  ghost atom cutoff = 38.5
  binsize = 8.7926654, bins = 35 35 35
  2 neighbor lists, perpetual/occasional/extra = 2 0 0
  (1) pair wf/cut, perpetual
      attributes: half, newton on
      pair build: half/multi/newton
      stencil: half/multi/3d/newton
      bin: standard
  (2) pair coul/debye, perpetual, skip from (1)
      attributes: half, newton on
      pair build: skip
      stencil: none
      bin: none
Per MPI rank memory allocation (min/avg/max) = 8.891 | 8.953 | 9.133 Mbytes
Step PotEng Temp Press KinEng Lx Ly Lz Pzz S/CPU Density 
       0   -13.356653          335   0.42086953    95.862851          300          300          300   0.30040783            0 0.00066940445 
    2000   -11.381068    328.19923   0.40193124    93.916758          300          300          300   0.29929142    41046.783 0.00066940445 
Loop time of 0.048744 on 6 procs for 2000 steps with 97 atoms

Performance: 35.451 ns/day, 0.677 hours/ns, 41030.722 timesteps/s
99.7% CPU use with 6 MPI tasks x no OpenMP threads

MPI task timing breakdown:
Section |  min time  |  avg time  |  max time  |%varavg| %total
---------------------------------------------------------------
Pair    | 0.00055885 | 0.0034309  | 0.017385   |  10.7 |  7.04
Bond    | 7.8201e-05 | 0.00044282 | 0.0021646  |   0.0 |  0.91
Neigh   | 0          | 0          | 0          |   0.0 |  0.00
Comm    | 0.017335   | 0.039684   | 0.044885   |   5.0 | 81.41
Output  | 2.408e-05  | 3.0796e-05 | 4.1962e-05 |   0.0 |  0.06
Modify  | 0.00026703 | 0.0020549  | 0.010714   |   8.5 |  4.22
Other   |            | 0.003101   |            |       |  6.36

Nlocal:        16.1667 ave          96 max           0 min
Histogram: 5 0 0 0 0 0 0 0 0 1
Nghost:        39.5000 ave          57 max           0 min
Histogram: 1 0 0 0 1 0 0 0 1 3
Neighs:        73.5000 ave         436 max           0 min
Histogram: 5 0 0 0 0 0 0 0 0 1

Total # of neighbors = 441
Ave neighs/atom = 4.5463918
Ave special neighs/atom = 1.9793814
Neighbor list builds = 0
Dangerous builds = 0

timestep 0.1
run 2000
Per MPI rank memory allocation (min/avg/max) = 8.891 | 8.953 | 9.133 Mbytes
Step PotEng Temp Press KinEng Lx Ly Lz Pzz S/CPU Density 
    2000   -11.381068    328.19923   0.40193124    93.916758          300          300          300   0.29929142            0 0.00066940445 
    4000    4.1681662    277.08909  -0.16813748    79.291195          300          300          300  -0.11618307    40945.805 0.00066940445 
Loop time of 0.0488598 on 6 procs for 2000 steps with 97 atoms

Performance: 353.665 ns/day, 0.068 hours/ns, 40933.484 timesteps/s
99.8% CPU use with 6 MPI tasks x no OpenMP threads

MPI task timing breakdown:
Section |  min time  |  avg time  |  max time  |%varavg| %total
---------------------------------------------------------------
Pair    | 0.00054884 | 0.0034051  | 0.01732    |  10.7 |  6.97
Bond    | 7.534e-05  | 0.00043941 | 0.0021677  |   0.0 |  0.90
Neigh   | 0          | 0          | 0          |   0.0 |  0.00
Comm    | 0.017606   | 0.039841   | 0.045061   |   5.0 | 81.54
Output  | 2.3127e-05 | 2.9723e-05 | 3.5048e-05 |   0.0 |  0.06
Modify  | 0.000278   | 0.0020488  | 0.010699   |   8.5 |  4.19
Other   |            | 0.003096   |            |       |  6.34

Nlocal:        16.1667 ave          96 max           0 min
Histogram: 5 0 0 0 0 0 0 0 0 1
Nghost:        39.5000 ave          57 max           0 min
Histogram: 1 0 0 0 1 0 0 0 1 3
Neighs:        73.5000 ave         436 max           0 min
Histogram: 5 0 0 0 0 0 0 0 0 1

Total # of neighbors = 441
Ave neighs/atom = 4.5463918
Ave special neighs/atom = 1.9793814
Neighbor list builds = 0
Dangerous builds = 0

timestep 1
run 2000
Per MPI rank memory allocation (min/avg/max) = 8.891 | 8.953 | 9.133 Mbytes
Step PotEng Temp Press KinEng Lx Ly Lz Pzz S/CPU Density 
    4000    4.1681662    277.08909  -0.16813748    79.291195          300          300          300  -0.11618307            0 0.00066940445 
    6000    10.495169      277.791  -0.19057218    79.492051          300          300          300  0.026675206    36532.408 0.00066940445 
Loop time of 0.0547744 on 6 procs for 2000 steps with 97 atoms

Performance: 3154.756 ns/day, 0.008 hours/ns, 36513.379 timesteps/s
98.0% CPU use with 6 MPI tasks x no OpenMP threads

MPI task timing breakdown:
Section |  min time  |  avg time  |  max time  |%varavg| %total
---------------------------------------------------------------
Pair    | 0.00056767 | 0.0034304  | 0.017284   |  10.6 |  6.26
Bond    | 7.6056e-05 | 0.00043209 | 0.0020938  |   0.0 |  0.79
Neigh   | 0.00030279 | 0.00030625 | 0.00031352 |   0.0 |  0.56
Comm    | 0.022538   | 0.044563   | 0.049712   |   4.7 | 81.36
Output  | 2.5988e-05 | 3.5246e-05 | 5.1022e-05 |   0.0 |  0.06
Modify  | 0.00027585 | 0.0020523  | 0.01049    |   8.3 |  3.75
Other   |            | 0.003956   |            |       |  7.22

Nlocal:        16.1667 ave          95 max           0 min
Histogram: 5 0 0 0 0 0 0 0 0 1
Nghost:        38.6667 ave          57 max           0 min
Histogram: 1 0 0 0 1 0 0 0 3 1
Neighs:        73.5000 ave         430 max           0 min
Histogram: 5 0 0 0 0 0 0 0 0 1

Total # of neighbors = 441
Ave neighs/atom = 4.5463918
Ave special neighs/atom = 1.9793814
Neighbor list builds = 5
Dangerous builds = 0

####Collapse the IDR

timestep 10
run 1000000
Per MPI rank memory allocation (min/avg/max) = 8.892 | 8.974 | 9.133 Mbytes
Step PotEng Temp Press KinEng Lx Ly Lz Pzz S/CPU Density 
    6000    10.495169      277.791  -0.19057218    79.492051          300          300          300  0.026675206            0 0.00066940445 
 1000000    16.087169    341.37942  -0.12026078    97.688371          300          300          300 -0.029701254    21604.861 0.00066940445 
 1006000    14.111395    301.86582  0.010309042    86.381248          300          300          300  0.032583932    20983.638 0.00066940445 
Loop time of 46.2941 on 6 procs for 1000000 steps with 97 atoms

Performance: 18663.272 ns/day, 0.001 hours/ns, 21601.009 timesteps/s
99.7% CPU use with 6 MPI tasks x no OpenMP threads

MPI task timing breakdown:
Section |  min time  |  avg time  |  max time  |%varavg| %total
---------------------------------------------------------------
Pair    | 0.28877    | 5.4255     | 14.979     | 228.0 | 11.72
Bond    | 0.040865   | 0.21637    | 0.52869    |  38.4 |  0.47
Neigh   | 2.1661     | 2.1821     | 2.1893     |   0.5 |  4.71
Comm    | 25.039     | 36.053     | 41.974     | 101.9 | 77.88
Output  | 0.0013101  | 0.0017836  | 0.0038157  |   2.2 |  0.00
Modify  | 0.15424    | 1.0258     | 2.6151     |  88.8 |  2.22
Other   |            | 1.39       |            |       |  3.00

Nlocal:        16.1667 ave          97 max           0 min
Histogram: 5 0 0 0 0 0 0 0 0 1
Nghost:        6.33333 ave          33 max           0 min
Histogram: 4 1 0 0 0 0 0 0 0 1
Neighs:        300.000 ave        1800 max           0 min
Histogram: 5 0 0 0 0 0 0 0 0 1

Total # of neighbors = 1800
Ave neighs/atom = 18.556701
Ave special neighs/atom = 1.9793814
Neighbor list builds = 26969
Dangerous builds = 0

####Replicate initial system

replicate 4 4 4
Replicating atoms ...
  orthogonal box = (0.0000000 0.0000000 0.0000000) to (1200.0000 1200.0000 1200.0000)
  1 by 2 by 3 MPI processor grid
  6208 atoms
  6144 bonds
Finding 1-2 1-3 1-4 neighbors ...
  special bond factors lj:    0        1        1       
  special bond factors coul:  0        1        1       
     2 = max # of 1-2 neighbors
     6 = max # of special neighbors
  special bonds CPU = 0.000 seconds
  replicate CPU = 0.001 seconds

run 1
Per MPI rank memory allocation (min/avg/max) = 11.62 | 11.64 | 11.68 Mbytes
Step PotEng Temp Press KinEng Lx Ly Lz Pzz S/CPU Density 
 1006000    903.12926    298.80193  0.010309042    5528.3999         1200         1200         1200  0.032583932            0 0.00066940445 
 1006001    937.82483       296.88 0.0059982662    5492.8405         1200         1200         1200  0.054355436    1177.8444 0.00066940445 
Loop time of 0.000859976 on 6 procs for 1 steps with 6208 atoms

Performance: 1004.679 ns/day, 0.024 hours/ns, 1162.823 timesteps/s
99.8% CPU use with 6 MPI tasks x no OpenMP threads

MPI task timing breakdown:
Section |  min time  |  avg time  |  max time  |%varavg| %total
---------------------------------------------------------------
Pair    | 0.00033402 | 0.00045443 | 0.00069618 |   0.0 | 52.84
Bond    | 1.3828e-05 | 1.8477e-05 | 2.7895e-05 |   0.0 |  2.15
Neigh   | 0          | 0          | 0          |   0.0 |  0.00
Comm    | 1.5974e-05 | 0.00026826 | 0.00039387 |   0.0 | 31.19
Output  | 2.9087e-05 | 5.5671e-05 | 7.2956e-05 |   0.0 |  6.47
Modify  | 4.22e-05   | 5.6267e-05 | 8.3923e-05 |   0.0 |  6.54
Other   |            | 6.874e-06  |            |       |  0.80

Nlocal:        1034.67 ave        1552 max         776 min
Histogram: 4 0 0 0 0 0 0 0 0 2
Nghost:        101.333 ave         264 max           0 min
Histogram: 2 2 0 0 0 0 0 0 0 2
Neighs:        19200.0 ave       28800 max       14400 min
Histogram: 4 0 0 0 0 0 0 0 0 2

Total # of neighbors = 115200
Ave neighs/atom = 18.556701
Ave special neighs/atom = 1.9793814
Neighbor list builds = 0
Dangerous builds = 0

####Smaller box size

#change_box all x final 0 300 y final 0 300 z final 0 300 remap

####Loop to compress

variable myDensity equal density
label loop
variable a loop 1000
change_box all x scale 0.95 y scale 0.95 z scale 0.95 remap
Changing box ...
  orthogonal box = (30.000000 0.0000000 0.0000000) to (1170.0000 1200.0000 1200.0000)
  orthogonal box = (30.000000 30.000000 0.0000000) to (1170.0000 1170.0000 1200.0000)
  orthogonal box = (30.000000 30.000000 30.000000) to (1170.0000 1170.0000 1170.0000)
run 8000
Per MPI rank memory allocation (min/avg/max) = 11.62 | 11.64 | 11.68 Mbytes
Step PotEng Temp Press KinEng Lx Ly Lz Pzz S/CPU Density 
 1006001    3211.7227       296.88    1.7218325    5492.8405         1140         1140         1140    1.7931553            0 0.0007807604 
 1014001    543.09081    343.42783  0.017729667    6354.0632         1140         1140         1140 -0.012948641    1314.5491 0.0007807604 
Loop time of 6.08586 on 6 procs for 8000 steps with 6208 atoms

Performance: 1135.747 ns/day, 0.021 hours/ns, 1314.521 timesteps/s
99.7% CPU use with 6 MPI tasks x no OpenMP threads

MPI task timing breakdown:
Section |  min time  |  avg time  |  max time  |%varavg| %total
---------------------------------------------------------------
Pair    | 2.0528     | 2.9052     | 4.6454     |  64.0 | 47.74
Bond    | 0.064548   | 0.087703   | 0.13406    |  10.4 |  1.44
Neigh   | 0.49348    | 0.49472    | 0.49624    |   0.1 |  8.13
Comm    | 0.12381    | 2.0947     | 3.0634     |  86.0 | 34.42
Output  | 4.8876e-05 | 9.4175e-05 | 0.00020409 |   0.0 |  0.00
Modify  | 0.32568    | 0.44314    | 0.67332    |  23.0 |  7.28
Other   |            | 0.06031    |            |       |  0.99

Nlocal:        1034.67 ave        1552 max         776 min
Histogram: 4 0 0 0 0 0 0 0 0 2
Nghost:        123.833 ave         285 max           0 min
Histogram: 2 0 0 0 1 2 0 0 0 1
Neighs:        17268.5 ave       27893 max       11615 min
Histogram: 2 2 0 0 0 0 0 0 1 1

Total # of neighbors = 103611
Ave neighs/atom = 16.689916
Ave special neighs/atom = 1.9793814
Neighbor list builds = 311
Dangerous builds = 0

if "${myDensity} > 1.0" then "jump SELF break"

next a
jump SELF loop
variable a loop 1000
change_box all x scale 0.95 y scale 0.95 z scale 0.95 remap
Changing box ...
  orthogonal box = (58.500000 30.000000 30.000000) to (1141.5000 1170.0000 1170.0000)
  orthogonal box = (58.500000 58.500000 30.000000) to (1141.5000 1141.5000 1170.0000)
  orthogonal box = (58.500000 58.500000 58.500000) to (1141.5000 1141.5000 1141.5000)
run 8000
Per MPI rank memory allocation (min/avg/max) = 11.62 | 11.64 | 11.68 Mbytes
Step PotEng Temp Press KinEng Lx Ly Lz Pzz S/CPU Density 
 1014001    2716.1019    343.42783    1.9866363    6354.0632         1083         1083         1083    1.9518611            0 0.0009106405 
 1022001    601.03035    344.84742  -0.02445171    6380.3283         1083         1083         1083 -0.049818818    1395.3314 0.0009106405 
Loop time of 5.73472 on 6 procs for 8000 steps with 6208 atoms

Performance: 1205.291 ns/day, 0.020 hours/ns, 1395.012 timesteps/s
99.7% CPU use with 6 MPI tasks x no OpenMP threads

MPI task timing breakdown:
Section |  min time  |  avg time  |  max time  |%varavg| %total
---------------------------------------------------------------
Pair    | 1.9184     | 2.7179     | 4.2469     |  62.9 | 47.39
Bond    | 0.064544   | 0.087722   | 0.13363    |  10.4 |  1.53
Neigh   | 0.48715    | 0.48941    | 0.49212    |   0.2 |  8.53
Comm    | 0.17726    | 1.9342     | 2.8349     |  85.6 | 33.73
Output  | 4.3154e-05 | 0.00028729 | 0.001384   |   0.0 |  0.01
Modify  | 0.32692    | 0.44375    | 0.67254    |  23.0 |  7.74
Other   |            | 0.06149    |            |       |  1.07

Nlocal:        1034.67 ave        1551 max         776 min
Histogram: 4 0 0 0 0 0 0 0 0 2
Nghost:        168.833 ave         431 max          15 min
Histogram: 2 0 0 2 0 1 0 0 0 1
Neighs:        16989.3 ave       26365 max       11192 min
Histogram: 3 1 0 0 0 0 0 0 0 2

Total # of neighbors = 101936
Ave neighs/atom = 16.420103
Ave special neighs/atom = 1.9793814
Neighbor list builds = 326
Dangerous builds = 0

if "${myDensity} > 1.0" then "jump SELF break"

next a
jump SELF loop
variable a loop 1000
change_box all x scale 0.95 y scale 0.95 z scale 0.95 remap
Changing box ...
  orthogonal box = (85.575000 58.500000 58.500000) to (1114.4250 1141.5000 1141.5000)
  orthogonal box = (85.575000 85.575000 58.500000) to (1114.4250 1114.4250 1141.5000)
  orthogonal box = (85.575000 85.575000 85.575000) to (1114.4250 1114.4250 1114.4250)
run 8000
Per MPI rank memory allocation (min/avg/max) = 11.62 | 11.64 | 11.68 Mbytes
Step PotEng Temp Press KinEng Lx Ly Lz Pzz S/CPU Density 
 1022001    2644.4762    344.84742    2.2643106    6380.3283      1028.85      1028.85      1028.85    2.2573664            0 0.0010621263 
 1030001    599.99206    341.79784  0.017066883    6323.9053      1028.85      1028.85      1028.85 -0.018630095    1402.5799 0.0010621263 
Loop time of 5.70391 on 6 procs for 8000 steps with 6208 atoms

Performance: 1211.800 ns/day, 0.020 hours/ns, 1402.547 timesteps/s
99.6% CPU use with 6 MPI tasks x no OpenMP threads

MPI task timing breakdown:
Section |  min time  |  avg time  |  max time  |%varavg| %total
---------------------------------------------------------------
Pair    | 1.9876     | 2.7429     | 4.2529     |  58.5 | 48.09
Bond    | 0.06462    | 0.087736   | 0.13233    |  10.2 |  1.54
Neigh   | 0.47279    | 0.47445    | 0.47705    |   0.2 |  8.32
Comm    | 0.16682    | 1.8958     | 2.7646     |  81.2 | 33.24
Output  | 4.1962e-05 | 8.7738e-05 | 0.00020289 |   0.0 |  0.00
Modify  | 0.33324    | 0.44317    | 0.66322    |  22.5 |  7.77
Other   |            | 0.05973    |            |       |  1.05

Nlocal:        1034.67 ave        1552 max         776 min
Histogram: 4 0 0 0 0 0 0 0 0 2
Nghost:        215.333 ave         427 max          15 min
Histogram: 2 0 0 0 0 1 2 0 0 1
Neighs:        17200.3 ave       26351 max       11744 min
Histogram: 3 1 0 0 0 0 0 0 0 2

Total # of neighbors = 103202
Ave neighs/atom = 16.624034
Ave special neighs/atom = 1.9793814
Neighbor list builds = 315
Dangerous builds = 0

if "${myDensity} > 1.0" then "jump SELF break"

next a
jump SELF loop
variable a loop 1000
change_box all x scale 0.95 y scale 0.95 z scale 0.95 remap
Changing box ...
  orthogonal box = (111.29625 85.575000 85.575000) to (1088.7037 1114.4250 1114.4250)
  orthogonal box = (111.29625 111.29625 85.575000) to (1088.7037 1088.7037 1114.4250)
  orthogonal box = (111.29625 111.29625 111.29625) to (1088.7037 1088.7037 1088.7037)
run 8000
Per MPI rank memory allocation (min/avg/max) = 11.62 | 11.64 | 11.68 Mbytes
Step PotEng Temp Press KinEng Lx Ly Lz Pzz S/CPU Density 
 1030001     2748.362    341.79784    2.6824552    6323.9053     977.4075     977.4075     977.4075    2.6382749            0 0.0012388118 
 1038001    645.16875    344.92965 0.0078727096    6381.8497     977.4075     977.4075     977.4075 -0.014053166    1465.5297 0.0012388118 
Loop time of 5.4589 on 6 procs for 8000 steps with 6208 atoms

Performance: 1266.189 ns/day, 0.019 hours/ns, 1465.497 timesteps/s
99.7% CPU use with 6 MPI tasks x no OpenMP threads

MPI task timing breakdown:
Section |  min time  |  avg time  |  max time  |%varavg| %total
---------------------------------------------------------------
Pair    | 1.9668     | 2.713      | 4.0535     |  53.9 | 49.70
Bond    | 0.06472    | 0.087399   | 0.12789    |   9.4 |  1.60
Neigh   | 0.43315    | 0.43482    | 0.43724    |   0.2 |  7.97
Comm    | 0.19491    | 1.7263     | 2.5637     |  78.0 | 31.62
Output  | 4.3869e-05 | 8.5235e-05 | 0.00018692 |   0.0 |  0.00
Modify  | 0.33461    | 0.44296    | 0.6449     |  20.8 |  8.11
Other   |            | 0.05429    |            |       |  0.99

Nlocal:        1034.67 ave        1496 max         780 min
Histogram: 4 0 0 0 0 0 0 0 0 2
Nghost:        249.167 ave         447 max          75 min
Histogram: 2 0 0 0 1 1 1 0 0 1
Neighs:        16960.3 ave       26083 max       12248 min
Histogram: 3 0 1 0 0 0 0 1 0 1

Total # of neighbors = 101762
Ave neighs/atom = 16.392075
Ave special neighs/atom = 1.9793814
Neighbor list builds = 321
Dangerous builds = 0

if "${myDensity} > 1.0" then "jump SELF break"

next a
jump SELF loop
variable a loop 1000
change_box all x scale 0.95 y scale 0.95 z scale 0.95 remap
Changing box ...
  orthogonal box = (135.73144 111.29625 111.29625) to (1064.2686 1088.7037 1088.7037)
  orthogonal box = (135.73144 135.73144 111.29625) to (1064.2686 1064.2686 1088.7037)
  orthogonal box = (135.73144 135.73144 135.73144) to (1064.2686 1064.2686 1064.2686)
run 8000
Per MPI rank memory allocation (min/avg/max) = 11.62 | 11.64 | 11.68 Mbytes
Step PotEng Temp Press KinEng Lx Ly Lz Pzz S/CPU Density 
 1038001    2778.3164    344.92965    3.1335601    6381.8497    928.53712    928.53712    928.53712     3.174998            0 0.0014448891 
 1046001    543.79971    342.31682 -0.034557838    6333.5075    928.53712    928.53712    928.53712 -0.056208878    1488.2962 0.0014448891 
Loop time of 5.3754 on 6 procs for 8000 steps with 6208 atoms

Performance: 1285.859 ns/day, 0.019 hours/ns, 1488.262 timesteps/s
99.7% CPU use with 6 MPI tasks x no OpenMP threads

MPI task timing breakdown:
Section |  min time  |  avg time  |  max time  |%varavg| %total
---------------------------------------------------------------
Pair    | 2.1169     | 2.7989     | 4.0342     |  44.1 | 52.07
Bond    | 0.066826   | 0.087785   | 0.12506    |   8.6 |  1.63
Neigh   | 0.41148    | 0.41336    | 0.41573    |   0.2 |  7.69
Comm    | 0.17143    | 1.5798     | 2.3358     |  68.5 | 29.39
Output  | 4.0054e-05 | 7.8638e-05 | 0.00018001 |   0.0 |  0.00
Modify  | 0.34183    | 0.44478    | 0.63026    |  18.9 |  8.27
Other   |            | 0.0506     |            |       |  0.94

Nlocal:        1034.67 ave        1451 max         784 min
Histogram: 2 2 0 0 0 0 0 0 0 2
Nghost:        345.333 ave         543 max         176 min
Histogram: 1 1 1 0 0 0 1 1 0 1
Neighs:        17569.7 ave       25219 max       13589 min
Histogram: 3 0 1 0 0 0 1 0 0 1

Total # of neighbors = 105418
Ave neighs/atom = 16.980992
Ave special neighs/atom = 1.9793814
Neighbor list builds = 320
Dangerous builds = 0

if "${myDensity} > 1.0" then "jump SELF break"

next a
jump SELF loop
variable a loop 1000
change_box all x scale 0.95 y scale 0.95 z scale 0.95 remap
Changing box ...
  orthogonal box = (158.94487 135.73144 135.73144) to (1041.0551 1064.2686 1064.2686)
  orthogonal box = (158.94487 158.94487 135.73144) to (1041.0551 1041.0551 1064.2686)
  orthogonal box = (158.94487 158.94487 158.94487) to (1041.0551 1041.0551 1041.0551)
run 8000
Per MPI rank memory allocation (min/avg/max) = 11.62 | 11.64 | 11.68 Mbytes
Step PotEng Temp Press KinEng Lx Ly Lz Pzz S/CPU Density 
 1046001     2621.062    342.31682    3.6292485    6333.5075    882.11027    882.11027    882.11027    3.5913767            0 0.0016852475 
 1054001    520.01183    344.51854 -0.0037426831    6374.2435    882.11027    882.11027    882.11027 -0.013736133    1520.1196 0.0016852475 
Loop time of 5.26287 on 6 procs for 8000 steps with 6208 atoms

Performance: 1313.353 ns/day, 0.018 hours/ns, 1520.084 timesteps/s
99.7% CPU use with 6 MPI tasks x no OpenMP threads

MPI task timing breakdown:
Section |  min time  |  avg time  |  max time  |%varavg| %total
---------------------------------------------------------------
Pair    | 2.0059     | 2.7885     | 3.9354     |  44.2 | 52.98
Bond    | 0.066252   | 0.087838   | 0.12084    |   7.9 |  1.67
Neigh   | 0.3919     | 0.39436    | 0.39762    |   0.3 |  7.49
Comm    | 0.18792    | 1.5009     | 2.3715     |  69.5 | 28.52
Output  | 3.9816e-05 | 7.9711e-05 | 0.00017905 |   0.0 |  0.00
Modify  | 0.3369     | 0.4452     | 0.60763    |  17.3 |  8.46
Other   |            | 0.04606    |            |       |  0.88

Nlocal:        1034.67 ave        1467 max         743 min
Histogram: 1 2 1 0 0 0 0 0 1 1
Nghost:        437.000 ave         647 max         248 min
Histogram: 1 0 0 2 0 2 0 0 0 1
Neighs:        17476.8 ave       24316 max       12356 min
Histogram: 2 1 0 0 1 0 0 0 0 2

Total # of neighbors = 104861
Ave neighs/atom = 16.891269
Ave special neighs/atom = 1.9793814
Neighbor list builds = 316
Dangerous builds = 0

if "${myDensity} > 1.0" then "jump SELF break"

next a
jump SELF loop
variable a loop 1000
change_box all x scale 0.95 y scale 0.95 z scale 0.95 remap
Changing box ...
  orthogonal box = (180.99762 158.94487 158.94487) to (1019.0024 1041.0551 1041.0551)
  orthogonal box = (180.99762 180.99762 158.94487) to (1019.0024 1019.0024 1041.0551)
  orthogonal box = (180.99762 180.99762 180.99762) to (1019.0024 1019.0024 1019.0024)
run 8000
Per MPI rank memory allocation (min/avg/max) = 11.62 | 11.64 | 11.68 Mbytes
Step PotEng Temp Press KinEng Lx Ly Lz Pzz S/CPU Density 
 1054001    2633.2676    344.51854    4.2492145    6374.2435    838.00476    838.00476    838.00476    4.1879462            0 0.0019655898 
 1062001    549.85561    334.92016 -0.091967322    6196.6553    838.00476    838.00476    838.00476   -0.1253704    1512.8156 0.0019655898 
Loop time of 5.28828 on 6 procs for 8000 steps with 6208 atoms

Performance: 1307.042 ns/day, 0.018 hours/ns, 1512.780 timesteps/s
99.7% CPU use with 6 MPI tasks x no OpenMP threads

MPI task timing breakdown:
Section |  min time  |  avg time  |  max time  |%varavg| %total
---------------------------------------------------------------
Pair    | 1.8812     | 2.7215     | 3.8577     |  49.7 | 51.46
Bond    | 0.062562   | 0.087857   | 0.12283    |   8.4 |  1.66
Neigh   | 0.38958    | 0.39197    | 0.3956     |   0.3 |  7.41
Comm    | 0.2835     | 1.5918     | 2.5276     |  74.7 | 30.10
Output  | 4.4107e-05 | 9.6679e-05 | 0.00020289 |   0.0 |  0.00
Modify  | 0.31731    | 0.44472    | 0.61744    |  18.5 |  8.41
Other   |            | 0.0503     |            |       |  0.95

Nlocal:        1034.67 ave        1464 max         688 min
Histogram: 1 1 1 1 0 0 0 0 0 2
Nghost:        527.667 ave         680 max         298 min
Histogram: 1 0 1 0 1 0 0 0 0 3
Neighs:        17226.8 ave       24847 max       12266 min
Histogram: 2 1 1 0 0 0 0 0 0 2

Total # of neighbors = 103361
Ave neighs/atom = 16.649646
Ave special neighs/atom = 1.9793814
Neighbor list builds = 320
Dangerous builds = 0

if "${myDensity} > 1.0" then "jump SELF break"

next a
jump SELF loop
variable a loop 1000
change_box all x scale 0.95 y scale 0.95 z scale 0.95 remap
Changing box ...
  orthogonal box = (201.94774 180.99762 180.99762) to (998.05226 1019.0024 1019.0024)
  orthogonal box = (201.94774 201.94774 180.99762) to (998.05226 998.05226 1019.0024)
  orthogonal box = (201.94774 201.94774 201.94774) to (998.05226 998.05226 998.05226)
run 8000
Per MPI rank memory allocation (min/avg/max) = 11.63 | 11.64 | 11.68 Mbytes
Step PotEng Temp Press KinEng Lx Ly Lz Pzz S/CPU Density 
 1062001    2577.2816    334.92016    4.8751528    6196.6553    796.10452    796.10452    796.10452    4.8871161            0 0.0022925672 
 1070001    540.14451    347.16502  -0.05849704    6423.2083    796.10452    796.10452    796.10452 -0.079117921    1560.1865 0.0022925672 
Loop time of 5.12772 on 6 procs for 8000 steps with 6208 atoms

Performance: 1347.969 ns/day, 0.018 hours/ns, 1560.149 timesteps/s
99.7% CPU use with 6 MPI tasks x no OpenMP threads

MPI task timing breakdown:
Section |  min time  |  avg time  |  max time  |%varavg| %total
---------------------------------------------------------------
Pair    | 1.9186     | 2.7476     | 3.7747     |  42.9 | 53.58
Bond    | 0.060527   | 0.087923   | 0.11964    |   7.3 |  1.71
Neigh   | 0.36505    | 0.3681     | 0.3713     |   0.3 |  7.18
Comm    | 0.24748    | 1.4304     | 2.3942     |  68.2 | 27.90
Output  | 4.1008e-05 | 7.6135e-05 | 0.00017405 |   0.0 |  0.00
Modify  | 0.30732    | 0.44589    | 0.60251    |  15.9 |  8.70
Other   |            | 0.04769    |            |       |  0.93

Nlocal:        1034.67 ave        1329 max         720 min
Histogram: 1 0 1 0 2 0 0 0 0 2
Nghost:        592.000 ave         800 max         447 min
Histogram: 1 1 2 0 0 0 0 0 1 1
Neighs:        17414.8 ave       23624 max       12195 min
Histogram: 1 1 0 1 1 0 0 1 0 1

Total # of neighbors = 104489
Ave neighs/atom = 16.831347
Ave special neighs/atom = 1.9793814
Neighbor list builds = 316
Dangerous builds = 0

if "${myDensity} > 1.0" then "jump SELF break"

next a
jump SELF loop
variable a loop 1000
change_box all x scale 0.95 y scale 0.95 z scale 0.95 remap
Changing box ...
  orthogonal box = (221.85035 201.94774 201.94774) to (978.14965 998.05226 998.05226)
  orthogonal box = (221.85035 221.85035 201.94774) to (978.14965 978.14965 998.05226)
  orthogonal box = (221.85035 221.85035 221.85035) to (978.14965 978.14965 978.14965)
run 8000
Per MPI rank memory allocation (min/avg/max) = 11.63 | 11.64 | 11.68 Mbytes
Step PotEng Temp Press KinEng Lx Ly Lz Pzz S/CPU Density 
 1070001    2591.0578    347.16502    5.7245415    6423.2083    756.29929    756.29929    756.29929    5.6673724            0 0.0026739375 
 1078001    548.98711     342.5071 -0.055716692    6337.0279    756.29929    756.29929    756.29929 -0.078092866    1651.8567 0.0026739375 
Loop time of 4.84426 on 6 procs for 8000 steps with 6208 atoms

Performance: 1426.844 ns/day, 0.017 hours/ns, 1651.440 timesteps/s
99.7% CPU use with 6 MPI tasks x no OpenMP threads

MPI task timing breakdown:
Section |  min time  |  avg time  |  max time  |%varavg| %total
---------------------------------------------------------------
Pair    | 2.0181     | 2.7216     | 3.5497     |  30.2 | 56.18
Bond    | 0.063802   | 0.088133   | 0.11239    |   5.3 |  1.82
Neigh   | 0.34553    | 0.34834    | 0.35172    |   0.3 |  7.19
Comm    | 0.25201    | 1.1979     | 2.0205     |  52.5 | 24.73
Output  | 4.1962e-05 | 0.00025558 | 0.001265   |   0.0 |  0.01
Modify  | 0.32316    | 0.44676    | 0.56554    |  11.6 |  9.22
Other   |            | 0.04128    |            |       |  0.85

Nlocal:        1034.67 ave        1233 max         741 min
Histogram: 1 0 0 0 1 2 0 0 0 2
Nghost:        648.500 ave         867 max         487 min
Histogram: 1 0 1 1 1 1 0 0 0 1
Neighs:        16776.0 ave       19968 max       13430 min
Histogram: 1 1 0 1 0 1 0 0 0 2

Total # of neighbors = 100656
Ave neighs/atom = 16.213918
Ave special neighs/atom = 1.9793814
Neighbor list builds = 317
Dangerous builds = 0

if "${myDensity} > 1.0" then "jump SELF break"

next a
jump SELF loop
variable a loop 1000
change_box all x scale 0.95 y scale 0.95 z scale 0.95 remap
Changing box ...
  orthogonal box = (240.75784 221.85035 221.85035) to (959.24216 978.14965 978.14965)
  orthogonal box = (240.75784 240.75784 221.85035) to (959.24216 959.24216 978.14965)
  orthogonal box = (240.75784 240.75784 240.75784) to (959.24216 959.24216 959.24216)
run 8000
Per MPI rank memory allocation (min/avg/max) = 11.63 | 11.64 | 11.68 Mbytes
Step PotEng Temp Press KinEng Lx Ly Lz Pzz S/CPU Density 
 1078001    2640.2349     342.5071    6.7425957    6337.0279    718.48433    718.48433    718.48433    6.6825899            0 0.0031187491 
 1086001     572.2261    342.84761  0.089057987    6343.3281    718.48433    718.48433    718.48433   0.19164239    1758.7934 0.0031187491 
Loop time of 4.54869 on 6 procs for 8000 steps with 6208 atoms

Performance: 1519.557 ns/day, 0.016 hours/ns, 1758.747 timesteps/s
99.7% CPU use with 6 MPI tasks x no OpenMP threads

MPI task timing breakdown:
Section |  min time  |  avg time  |  max time  |%varavg| %total
---------------------------------------------------------------
Pair    | 2.1502     | 2.6825     | 3.2818     |  25.4 | 58.97
Bond    | 0.066087   | 0.088196   | 0.10875    |   4.5 |  1.94
Neigh   | 0.32999    | 0.33174    | 0.33447    |   0.3 |  7.29
Comm    | 0.26468    | 0.96263    | 1.6054     |  48.5 | 21.16
Output  | 4.22e-05   | 7.2916e-05 | 0.0001688  |   0.0 |  0.00
Modify  | 0.33325    | 0.44705    | 0.54696    |   9.9 |  9.83
Other   |            | 0.03646    |            |       |  0.80

Nlocal:        1034.67 ave        1232 max         799 min
Histogram: 1 0 0 0 2 0 1 1 0 1
Nghost:        686.333 ave         842 max         469 min
Histogram: 1 0 0 1 0 1 0 1 1 1
Neighs:        16774.2 ave       19658 max       13293 min
Histogram: 2 0 0 0 0 1 0 1 0 2

Total # of neighbors = 100645
Ave neighs/atom = 16.212146
Ave special neighs/atom = 1.9793814
Neighbor list builds = 318
Dangerous builds = 0

if "${myDensity} > 1.0" then "jump SELF break"

next a
jump SELF loop
variable a loop 1000
change_box all x scale 0.95 y scale 0.95 z scale 0.95 remap
Changing box ...
  orthogonal box = (258.71994 240.75784 240.75784) to (941.28006 959.24216 959.24216)
  orthogonal box = (258.71994 258.71994 240.75784) to (941.28006 941.28006 959.24216)
  orthogonal box = (258.71994 258.71994 258.71994) to (941.28006 941.28006 941.28006)
run 8000
Per MPI rank memory allocation (min/avg/max) = 11.63 | 11.65 | 11.68 Mbytes
Step PotEng Temp Press KinEng Lx Ly Lz Pzz S/CPU Density 
 1086001     2763.025    342.84761    7.9658444    6343.3281    682.56011    682.56011    682.56011    8.2162062            0 0.0036375554 
 1094001    664.31857    347.66541  0.080559458    6432.4665    682.56011    682.56011    682.56011   0.21485296     1789.931 0.0036375554 
Loop time of 4.46957 on 6 procs for 8000 steps with 6208 atoms

Performance: 1546.458 ns/day, 0.016 hours/ns, 1789.882 timesteps/s
99.7% CPU use with 6 MPI tasks x no OpenMP threads

MPI task timing breakdown:
Section |  min time  |  avg time  |  max time  |%varavg| %total
---------------------------------------------------------------
Pair    | 2.0402     | 2.6555     | 3.2343     |  25.4 | 59.41
Bond    | 0.071088   | 0.088365   | 0.10245    |   3.2 |  1.98
Neigh   | 0.3164     | 0.31774    | 0.32019    |   0.2 |  7.11
Comm    | 0.28736    | 0.93135    | 1.6327     |  47.5 | 20.84
Output  | 4.4107e-05 | 6.7194e-05 | 0.00015712 |   0.0 |  0.00
Modify  | 0.35873    | 0.447      | 0.51277    |   7.2 | 10.00
Other   |            | 0.02958    |            |       |  0.66

Nlocal:        1034.67 ave        1144 max         795 min
Histogram: 1 0 0 0 0 0 0 3 1 1
Nghost:        712.167 ave         902 max         386 min
Histogram: 1 0 0 0 1 1 0 0 1 2
Neighs:        16440.3 ave       19564 max       11382 min
Histogram: 1 0 0 0 2 0 0 1 0 2

Total # of neighbors = 98642
Ave neighs/atom = 15.889497
Ave special neighs/atom = 1.9793814
Neighbor list builds = 319
Dangerous builds = 0

if "${myDensity} > 1.0" then "jump SELF break"

next a
jump SELF loop
variable a loop 1000
change_box all x scale 0.95 y scale 0.95 z scale 0.95 remap
Changing box ...
  orthogonal box = (275.78395 258.71994 258.71994) to (924.21605 941.28006 941.28006)
  orthogonal box = (275.78395 275.78395 258.71994) to (924.21605 924.21605 941.28006)
  orthogonal box = (275.78395 275.78395 275.78395) to (924.21605 924.21605 924.21605)
run 8000
Per MPI rank memory allocation (min/avg/max) = 11.63 | 11.65 | 11.68 Mbytes
Step PotEng Temp Press KinEng Lx Ly Lz Pzz S/CPU Density 
 1094001     2813.341    347.66541    9.1950268    6432.4665    648.43211    648.43211    648.43211    9.3145803            0 0.0042426656 
 1102001    625.56817    343.33351  0.017798219    6352.3182    648.43211    648.43211    648.43211   0.11935274     1851.932 0.0042426656 
Loop time of 4.31985 on 6 procs for 8000 steps with 6208 atoms

Performance: 1600.055 ns/day, 0.015 hours/ns, 1851.916 timesteps/s
99.7% CPU use with 6 MPI tasks x no OpenMP threads

MPI task timing breakdown:
Section |  min time  |  avg time  |  max time  |%varavg| %total
---------------------------------------------------------------
Pair    | 2.0499     | 2.6742     | 3.0784     |  21.2 | 61.91
Bond    | 0.070619   | 0.088418   | 0.098831   |   3.0 |  2.05
Neigh   | 0.31888    | 0.32017    | 0.32355    |   0.3 |  7.41
Comm    | 0.3267     | 0.75964    | 1.4706     |  44.6 | 17.58
Output  | 0.0024381  | 0.0026246  | 0.0028379  |   0.3 |  0.06
Modify  | 0.35806    | 0.4482     | 0.49624    |   6.7 | 10.38
Other   |            | 0.02658    |            |       |  0.62

Nlocal:        1034.67 ave        1187 max         841 min
Histogram: 1 0 0 0 1 1 1 1 0 1
Nghost:        748.667 ave        1010 max         469 min
Histogram: 2 0 0 0 0 1 1 0 1 1
Neighs:        16599.5 ave       19774 max       13817 min
Histogram: 1 1 1 0 0 1 0 0 1 1

Total # of neighbors = 99597
Ave neighs/atom = 16.043331
Ave special neighs/atom = 1.9793814
Neighbor list builds = 324
Dangerous builds = 0

if "${myDensity} > 1.0" then "jump SELF break"

next a
jump SELF loop
variable a loop 1000
change_box all x scale 0.95 y scale 0.95 z scale 0.95 remap
Changing box ...
  orthogonal box = (291.99475 275.78395 275.78395) to (908.00525 924.21605 924.21605)
  orthogonal box = (291.99475 291.99475 275.78395) to (908.00525 908.00525 924.21605)
  orthogonal box = (291.99475 291.99475 291.99475) to (908.00525 908.00525 908.00525)
run 8000
Per MPI rank memory allocation (min/avg/max) = 11.78 | 11.80 | 11.84 Mbytes
Step PotEng Temp Press KinEng Lx Ly Lz Pzz S/CPU Density 
 1102001    2780.8775    343.33351    10.825668    6352.3182     616.0105     616.0105     616.0105    10.968042            0 0.0049484363 
 1110001     586.4277    339.48963  -0.06732061     6281.199     616.0105     616.0105     616.0105  -0.01228209     1767.853 0.0049484363 
Loop time of 4.52538 on 6 procs for 8000 steps with 6208 atoms

Performance: 1527.385 ns/day, 0.016 hours/ns, 1767.806 timesteps/s
99.7% CPU use with 6 MPI tasks x no OpenMP threads

MPI task timing breakdown:
Section |  min time  |  avg time  |  max time  |%varavg| %total
---------------------------------------------------------------
Pair    | 2.1618     | 2.6929     | 3.2824     |  22.4 | 59.51
Bond    | 0.070452   | 0.088388   | 0.1031     |   3.7 |  1.95
Neigh   | 0.3185     | 0.32027    | 0.3239     |   0.3 |  7.08
Comm    | 0.28595    | 0.94576    | 1.5623     |  42.9 | 20.90
Output  | 4.6015e-05 | 7.3155e-05 | 0.00016999 |   0.0 |  0.00
Modify  | 0.35627    | 0.44745    | 0.51882    |   8.3 |  9.89
Other   |            | 0.03052    |            |       |  0.67

Nlocal:        1034.67 ave        1247 max         767 min
Histogram: 1 0 0 0 1 2 0 0 1 1
Nghost:        864.333 ave        1260 max         631 min
Histogram: 2 0 1 0 1 1 0 0 0 1
Neighs:        16445.8 ave       20137 max       12411 min
Histogram: 1 0 1 0 1 0 1 0 1 1

Total # of neighbors = 98675
Ave neighs/atom = 15.894813
Ave special neighs/atom = 1.9793814
Neighbor list builds = 317
Dangerous builds = 0

if "${myDensity} > 1.0" then "jump SELF break"

next a
jump SELF loop
variable a loop 1000
change_box all x scale 0.95 y scale 0.95 z scale 0.95 remap
Changing box ...
  orthogonal box = (307.39501 291.99475 291.99475) to (892.60499 908.00525 908.00525)
  orthogonal box = (307.39501 307.39501 291.99475) to (892.60499 892.60499 908.00525)
  orthogonal box = (307.39501 307.39501 307.39501) to (892.60499 892.60499 892.60499)
run 8000
Per MPI rank memory allocation (min/avg/max) = 11.78 | 11.80 | 11.84 Mbytes
Step PotEng Temp Press KinEng Lx Ly Lz Pzz S/CPU Density 
 1110001    2663.8681    339.48963    12.328582     6281.199    585.20997    585.20997    585.20997    12.239396            0 0.0057716126 
 1118001    469.00504    340.62336  -0.18964178    6302.1752    585.20997    585.20997    585.20997  -0.28814628    1626.0933 0.0057716126 
Loop time of 4.91989 on 6 procs for 8000 steps with 6208 atoms

Performance: 1404.910 ns/day, 0.017 hours/ns, 1626.053 timesteps/s
99.7% CPU use with 6 MPI tasks x no OpenMP threads

MPI task timing breakdown:
Section |  min time  |  avg time  |  max time  |%varavg| %total
---------------------------------------------------------------
Pair    | 1.7377     | 2.7971     | 3.5812     |  35.4 | 56.85
Bond    | 0.057587   | 0.088243   | 0.10875    |   5.7 |  1.79
Neigh   | 0.33045    | 0.3328     | 0.33603    |   0.3 |  6.76
Comm    | 0.33588    | 1.2185     | 2.4275     |  61.1 | 24.77
Output  | 3.9816e-05 | 7.1565e-05 | 0.00016904 |   0.0 |  0.00
Modify  | 0.29236    | 0.44627    | 0.54394    |  12.7 |  9.07
Other   |            | 0.03689    |            |       |  0.75

Nlocal:        1034.67 ave        1333 max         599 min
Histogram: 1 0 0 0 1 1 1 0 1 1
Nghost:        939.167 ave        1307 max         560 min
Histogram: 1 0 0 1 1 0 2 0 0 1
Neighs:        16854.0 ave       20231 max        9398 min
Histogram: 1 0 0 0 0 0 1 2 0 2

Total # of neighbors = 101124
Ave neighs/atom = 16.289304
Ave special neighs/atom = 1.9793814
Neighbor list builds = 316
Dangerous builds = 0

if "${myDensity} > 1.0" then "jump SELF break"

next a
jump SELF loop
variable a loop 1000
change_box all x scale 0.95 y scale 0.95 z scale 0.95 remap
Changing box ...
  orthogonal box = (322.02526 307.39501 307.39501) to (877.97474 892.60499 892.60499)
  orthogonal box = (322.02526 322.02526 307.39501) to (877.97474 877.97474 892.60499)
  orthogonal box = (322.02526 322.02526 322.02526) to (877.97474 877.97474 877.97474)
run 8000
Per MPI rank memory allocation (min/avg/max) = 11.78 | 11.80 | 11.84 Mbytes
Step PotEng Temp Press KinEng Lx Ly Lz Pzz S/CPU Density 
 1118001     2507.845    340.62336    14.331164    6302.1752    555.94948    555.94948    555.94948    14.200093            0 0.0067317249 
 1126001    544.96165    342.63864   0.32618163    6339.4617    555.94948    555.94948    555.94948    0.4898898    1660.6871 0.0067317249 
Loop time of 4.81732 on 6 procs for 8000 steps with 6208 atoms

Performance: 1434.823 ns/day, 0.017 hours/ns, 1660.675 timesteps/s
99.6% CPU use with 6 MPI tasks x no OpenMP threads

MPI task timing breakdown:
Section |  min time  |  avg time  |  max time  |%varavg| %total
---------------------------------------------------------------
Pair    | 1.5051     | 2.7764     | 3.4027     |  36.9 | 57.63
Bond    | 0.050992   | 0.088514   | 0.11277    |   6.6 |  1.84
Neigh   | 0.32126    | 0.32422    | 0.32703    |   0.3 |  6.73
Comm    | 0.39761    | 1.1379     | 2.5945     |  66.4 | 23.62
Output  | 4.0054e-05 | 6.5009e-05 | 9.2983e-05 |   0.0 |  0.00
Modify  | 0.2583     | 0.44771    | 0.56478    |  14.7 |  9.29
Other   |            | 0.04253    |            |       |  0.88

Nlocal:        1034.67 ave        1342 max         513 min
Histogram: 1 0 0 0 0 0 3 0 1 1
Nghost:        1028.83 ave        1364 max         607 min
Histogram: 1 0 1 0 0 2 0 0 0 2
Neighs:        17277.0 ave       22834 max        7075 min
Histogram: 1 0 0 0 0 0 3 0 1 1

Total # of neighbors = 103662
Ave neighs/atom = 16.698131
Ave special neighs/atom = 1.9793814
Neighbor list builds = 317
Dangerous builds = 0

if "${myDensity} > 1.0" then "jump SELF break"

next a
jump SELF loop
variable a loop 1000
change_box all x scale 0.95 y scale 0.95 z scale 0.95 remap
Changing box ...
  orthogonal box = (335.92400 322.02526 322.02526) to (864.07600 877.97474 877.97474)
  orthogonal box = (335.92400 335.92400 322.02526) to (864.07600 864.07600 877.97474)
  orthogonal box = (335.92400 335.92400 335.92400) to (864.07600 864.07600 864.07600)
run 8000
Per MPI rank memory allocation (min/avg/max) = 11.78 | 11.80 | 11.84 Mbytes
Step PotEng Temp Press KinEng Lx Ly Lz Pzz S/CPU Density 
 1126001    2773.2927    342.63864    17.242183    6339.4617      528.152      528.152      528.152    17.411356            0 0.0078515525 
 1134001    526.01112    341.19265 -0.0080187703    6312.7082      528.152      528.152      528.152 -0.043966266    1630.4659 0.0078515525 
Loop time of 4.90839 on 6 procs for 8000 steps with 6208 atoms

Performance: 1408.202 ns/day, 0.017 hours/ns, 1629.863 timesteps/s
99.7% CPU use with 6 MPI tasks x no OpenMP threads

MPI task timing breakdown:
Section |  min time  |  avg time  |  max time  |%varavg| %total
---------------------------------------------------------------
Pair    | 1.3493     | 2.8583     | 3.4992     |  42.2 | 58.23
Bond    | 0.045446   | 0.088249   | 0.11077    |   7.2 |  1.80
Neigh   | 0.33197    | 0.33448    | 0.33713    |   0.3 |  6.81
Comm    | 0.40428    | 1.1377     | 2.859      |  76.6 | 23.18
Output  | 4.1962e-05 | 0.00036105 | 0.0018671  |   0.0 |  0.01
Modify  | 0.23093    | 0.44636    | 0.55505    |  15.9 |  9.09
Other   |            | 0.04289    |            |       |  0.87

Nlocal:        1034.67 ave        1339 max         513 min
Histogram: 1 0 0 0 0 0 3 0 1 1
Nghost:        1062.33 ave        1462 max         799 min
Histogram: 2 0 0 2 0 0 0 1 0 1
Neighs:        17520.8 ave       21511 max        8738 min
Histogram: 1 0 0 0 0 0 1 2 0 2

Total # of neighbors = 105125
Ave neighs/atom = 16.933795
Ave special neighs/atom = 1.9793814
Neighbor list builds = 323
Dangerous builds = 0

if "${myDensity} > 1.0" then "jump SELF break"

next a
jump SELF loop
variable a loop 1000
change_box all x scale 0.95 y scale 0.95 z scale 0.95 remap
Changing box ...
  orthogonal box = (349.12780 335.92400 335.92400) to (850.87220 864.07600 864.07600)
  orthogonal box = (349.12780 349.12780 335.92400) to (850.87220 850.87220 864.07600)
  orthogonal box = (349.12780 349.12780 349.12780) to (850.87220 850.87220 850.87220)
run 8000
Per MPI rank memory allocation (min/avg/max) = 11.78 | 11.80 | 11.84 Mbytes
Step PotEng Temp Press KinEng Lx Ly Lz Pzz S/CPU Density 
 1134001    2655.5821    341.19265    19.992034    6312.7082     501.7444     501.7444     501.7444    19.597743            0 0.0091576644 
 1142001    550.88263    341.10205  0.071017675     6311.032     501.7444     501.7444     501.7444 -0.070074776    1667.8429 0.0091576644 
Loop time of 4.79674 on 6 procs for 8000 steps with 6208 atoms

Performance: 1440.978 ns/day, 0.017 hours/ns, 1667.799 timesteps/s
99.7% CPU use with 6 MPI tasks x no OpenMP threads

MPI task timing breakdown:
Section |  min time  |  avg time  |  max time  |%varavg| %total
---------------------------------------------------------------
Pair    | 1.5997     | 2.8        | 3.4532     |  35.0 | 58.37
Bond    | 0.048512   | 0.088261   | 0.1124     |   6.9 |  1.84
Neigh   | 0.32619    | 0.32795    | 0.32993    |   0.2 |  6.84
Comm    | 0.32386    | 1.0937     | 2.4923     |  65.6 | 22.80
Output  | 4.1008e-05 | 7.534e-05  | 0.000175   |   0.0 |  0.00
Modify  | 0.24488    | 0.44624    | 0.56346    |  15.3 |  9.30
Other   |            | 0.04043    |            |       |  0.84

Nlocal:        1034.67 ave        1270 max         571 min
Histogram: 1 0 0 0 0 0 2 1 0 2
Nghost:        1212.67 ave        1598 max        1003 min
Histogram: 2 1 1 0 0 0 1 0 0 1
Neighs:        17648.5 ave       20322 max       10424 min
Histogram: 1 0 0 0 0 0 0 2 1 2

Total # of neighbors = 105891
Ave neighs/atom = 17.057184
Ave special neighs/atom = 1.9793814
Neighbor list builds = 320
Dangerous builds = 0

if "${myDensity} > 1.0" then "jump SELF break"

next a
jump SELF loop
variable a loop 1000
change_box all x scale 0.95 y scale 0.95 z scale 0.95 remap
Changing box ...
  orthogonal box = (361.67141 349.12780 349.12780) to (838.32859 850.87220 850.87220)
  orthogonal box = (361.67141 361.67141 349.12780) to (838.32859 838.32859 850.87220)
  orthogonal box = (361.67141 361.67141 361.67141) to (838.32859 838.32859 838.32859)
run 8000
Per MPI rank memory allocation (min/avg/max) = 11.78 | 11.80 | 11.84 Mbytes
Step PotEng Temp Press KinEng Lx Ly Lz Pzz S/CPU Density 
 1142001    2713.0855    341.10205    23.353287     6311.032    476.65718    476.65718    476.65718    22.932836            0  0.010681049 
 1150001    544.49321    337.89184   0.19629468    6251.6371    476.65718    476.65718    476.65718  0.031099632    1747.3578  0.010681049 
Loop time of 4.57847 on 6 procs for 8000 steps with 6208 atoms

Performance: 1509.676 ns/day, 0.016 hours/ns, 1747.310 timesteps/s
99.7% CPU use with 6 MPI tasks x no OpenMP threads

MPI task timing breakdown:
Section |  min time  |  avg time  |  max time  |%varavg| %total
---------------------------------------------------------------
Pair    | 1.7834     | 2.7823     | 3.2152     |  28.7 | 60.77
Bond    | 0.059563   | 0.088487   | 0.10478    |   5.2 |  1.93
Neigh   | 0.31326    | 0.31412    | 0.31553    |   0.1 |  6.86
Comm    | 0.40317    | 0.91235    | 2.0553     |  57.9 | 19.93
Output  | 3.9101e-05 | 7.2201e-05 | 0.00016999 |   0.0 |  0.00
Modify  | 0.29942    | 0.44654    | 0.52498    |  11.6 |  9.75
Other   |            | 0.03465    |            |       |  0.76

Nlocal:        1034.67 ave        1288 max         753 min
Histogram: 1 0 0 0 2 1 1 0 0 1
Nghost:        1313.50 ave        1564 max        1042 min
Histogram: 1 0 1 0 2 0 0 0 0 2
Neighs:        17537.8 ave       20837 max       11576 min
Histogram: 1 0 0 0 0 1 0 3 0 1

Total # of neighbors = 105227
Ave neighs/atom = 16.950226
Ave special neighs/atom = 1.9793814
Neighbor list builds = 319
Dangerous builds = 0

if "${myDensity} > 1.0" then "jump SELF break"

next a
jump SELF loop
variable a loop 1000
change_box all x scale 0.95 y scale 0.95 z scale 0.95 remap
Changing box ...
  orthogonal box = (373.58784 361.67141 361.67141) to (826.41216 838.32859 838.32859)
  orthogonal box = (373.58784 373.58784 361.67141) to (826.41216 826.41216 838.32859)
  orthogonal box = (373.58784 373.58784 373.58784) to (826.41216 826.41216 826.41216)
run 8000
Per MPI rank memory allocation (min/avg/max) = 11.78 | 11.80 | 11.84 Mbytes
Step PotEng Temp Press KinEng Lx Ly Lz Pzz S/CPU Density 
 1150001     2717.144    337.89184    27.118072    6251.6371    452.82432    452.82432    452.82432    26.936388            0   0.01245785 
 1158001    546.86371    343.85678  0.047133682    6361.9997    452.82432    452.82432    452.82432   0.30288547    1681.7559   0.01245785 
Loop time of 4.75697 on 6 procs for 8000 steps with 6208 atoms

Performance: 1453.026 ns/day, 0.017 hours/ns, 1681.743 timesteps/s
99.7% CPU use with 6 MPI tasks x no OpenMP threads

MPI task timing breakdown:
Section |  min time  |  avg time  |  max time  |%varavg| %total
---------------------------------------------------------------
Pair    | 2.1639     | 2.8491     | 3.355      |  24.4 | 59.89
Bond    | 0.072091   | 0.088702   | 0.10575    |   4.1 |  1.86
Neigh   | 0.31442    | 0.31515    | 0.3166     |   0.1 |  6.62
Comm    | 0.46992    | 1.0206     | 1.7845     |  45.8 | 21.45
Output  | 3.6955e-05 | 5.2929e-05 | 8.6069e-05 |   0.0 |  0.00
Modify  | 0.36485    | 0.44799    | 0.52989    |   9.1 |  9.42
Other   |            | 0.03543    |            |       |  0.74

Nlocal:        1034.67 ave        1227 max         869 min
Histogram: 1 1 0 0 2 0 0 1 0 1
Nghost:        1354.33 ave        1506 max        1101 min
Histogram: 1 0 0 0 1 0 0 2 1 1
Neighs:        17306.2 ave       21205 max       14588 min
Histogram: 2 0 0 1 1 0 1 0 0 1

Total # of neighbors = 103837
Ave neighs/atom = 16.726321
Ave special neighs/atom = 1.9793814
Neighbor list builds = 307
Dangerous builds = 0

if "${myDensity} > 1.0" then "jump SELF break"

next a
jump SELF loop
variable a loop 1000
change_box all x scale 0.95 y scale 0.95 z scale 0.95 remap
Changing box ...
  orthogonal box = (384.90845 373.58784 373.58784) to (815.09155 826.41216 826.41216)
  orthogonal box = (384.90845 384.90845 373.58784) to (815.09155 815.09155 826.41216)
  orthogonal box = (384.90845 384.90845 384.90845) to (815.09155 815.09155 815.09155)
run 8000
Per MPI rank memory allocation (min/avg/max) = 11.78 | 11.80 | 11.84 Mbytes
Step PotEng Temp Press KinEng Lx Ly Lz Pzz S/CPU Density 
 1158001    2663.2683    343.85678    31.399967    6361.9997    430.18311    430.18311    430.18311    31.202981            0  0.014530223 
 1166001    499.83233    344.15564 -0.051410006    6367.5291    430.18311    430.18311    430.18311   0.43396302     1640.964  0.014530223 
Loop time of 4.87532 on 6 procs for 8000 steps with 6208 atoms

Performance: 1417.754 ns/day, 0.017 hours/ns, 1640.920 timesteps/s
99.7% CPU use with 6 MPI tasks x no OpenMP threads

MPI task timing breakdown:
Section |  min time  |  avg time  |  max time  |%varavg| %total
---------------------------------------------------------------
Pair    | 2.3056     | 2.8188     | 3.5366     |  23.9 | 57.82
Bond    | 0.072505   | 0.088904   | 0.104      |   3.8 |  1.82
Neigh   | 0.34159    | 0.34295    | 0.34403    |   0.2 |  7.03
Comm    | 0.36413    | 1.1413     | 1.7104     |  42.2 | 23.41
Output  | 4.1962e-05 | 7.4347e-05 | 0.00018501 |   0.0 |  0.00
Modify  | 0.3613     | 0.44878    | 0.5215     |   8.9 |  9.21
Other   |            | 0.03451    |            |       |  0.71

Nlocal:        1034.67 ave        1241 max         819 min
Histogram: 1 1 0 0 1 0 1 0 1 1
Nghost:        1457.67 ave        1676 max        1160 min
Histogram: 1 0 0 0 1 2 0 0 0 2
Neighs:        17814.2 ave       23222 max       11969 min
Histogram: 1 0 0 1 1 1 0 1 0 1

Total # of neighbors = 106885
Ave neighs/atom = 17.217300
Ave special neighs/atom = 1.9793814
Neighbor list builds = 320
Dangerous builds = 0

if "${myDensity} > 1.0" then "jump SELF break"

next a
jump SELF loop
variable a loop 1000
change_box all x scale 0.95 y scale 0.95 z scale 0.95 remap
Changing box ...
  orthogonal box = (395.66302 384.90845 384.90845) to (804.33698 815.09155 815.09155)
  orthogonal box = (395.66302 395.66302 384.90845) to (804.33698 804.33698 815.09155)
  orthogonal box = (395.66302 395.66302 395.66302) to (804.33698 804.33698 804.33698)
run 8000
Per MPI rank memory allocation (min/avg/max) = 11.79 | 11.81 | 11.84 Mbytes
Step PotEng Temp Press KinEng Lx Ly Lz Pzz S/CPU Density 
 1166001    2592.0314    344.15564    36.349165    6367.5291    408.67395    408.67395    408.67395    37.458707            0  0.016947337 
 1174001    562.38352    345.16735   0.13436745    6386.2476    408.67395    408.67395    408.67395  -0.12087272    1648.0553  0.016947337 
Loop time of 4.85433 on 6 procs for 8000 steps with 6208 atoms

Performance: 1423.883 ns/day, 0.017 hours/ns, 1648.013 timesteps/s
99.7% CPU use with 6 MPI tasks x no OpenMP threads

MPI task timing breakdown:
Section |  min time  |  avg time  |  max time  |%varavg| %total
---------------------------------------------------------------
Pair    | 2.0511     | 2.9164     | 3.4172     |  27.5 | 60.08
Bond    | 0.065619   | 0.088801   | 0.10019    |   4.2 |  1.83
Neigh   | 0.32531    | 0.32662    | 0.32788    |   0.2 |  6.73
Comm    | 0.48664    | 1.0391     | 2.021      |  52.1 | 21.41
Output  | 4.0054e-05 | 7.3512e-05 | 0.00017405 |   0.0 |  0.00
Modify  | 0.32938    | 0.44809    | 0.50403    |   9.7 |  9.23
Other   |            | 0.03522    |            |       |  0.73

Nlocal:        1034.67 ave        1222 max         701 min
Histogram: 1 0 0 0 1 0 0 1 2 1
Nghost:        1615.33 ave        1942 max        1355 min
Histogram: 1 1 0 1 1 0 0 1 0 1
Neighs:        18080.7 ave       22852 max       11069 min
Histogram: 1 0 0 1 0 0 0 3 0 1

Total # of neighbors = 108484
Ave neighs/atom = 17.474871
Ave special neighs/atom = 1.9793814
Neighbor list builds = 313
Dangerous builds = 0

if "${myDensity} > 1.0" then "jump SELF break"

next a
jump SELF loop
variable a loop 1000
change_box all x scale 0.95 y scale 0.95 z scale 0.95 remap
Changing box ...
  orthogonal box = (405.87987 395.66302 395.66302) to (794.12013 804.33698 804.33698)
  orthogonal box = (405.87987 405.87987 395.66302) to (794.12013 794.12013 804.33698)
  orthogonal box = (405.87987 405.87987 405.87987) to (794.12013 794.12013 794.12013)
run 8000
Per MPI rank memory allocation (min/avg/max) = 11.79 | 11.81 | 11.85 Mbytes
Step PotEng Temp Press KinEng Lx Ly Lz Pzz S/CPU Density 
 1174001     2716.278    345.16735    43.196766    6386.2476    388.24025    388.24025    388.24025    43.098352            0   0.01976654 
 1182001    427.66157    344.86866 -0.082742291    6380.7212    388.24025    388.24025    388.24025   -0.3972524     1652.519   0.01976654 
Loop time of 4.84331 on 6 procs for 8000 steps with 6208 atoms

Performance: 1427.124 ns/day, 0.017 hours/ns, 1651.764 timesteps/s
99.7% CPU use with 6 MPI tasks x no OpenMP threads

MPI task timing breakdown:
Section |  min time  |  avg time  |  max time  |%varavg| %total
---------------------------------------------------------------
Pair    | 2.0869     | 3          | 3.3173     |  26.2 | 61.94
Bond    | 0.061087   | 0.089114   | 0.10065    |   4.6 |  1.84
Neigh   | 0.32595    | 0.32755    | 0.32992    |   0.2 |  6.76
Comm    | 0.56098    | 0.93764    | 1.9901     |  54.0 | 19.36
Output  | 4.4107e-05 | 0.00042033 | 0.0022569  |   0.0 |  0.01
Modify  | 0.30707    | 0.4496     | 0.51618    |  10.7 |  9.28
Other   |            | 0.03895    |            |       |  0.80

Nlocal:        1034.67 ave        1172 max         715 min
Histogram: 1 0 0 0 0 0 1 0 3 1
Nghost:        1639.00 ave        1857 max        1503 min
Histogram: 2 0 2 0 0 0 0 1 0 1
Neighs:        18615.0 ave       20294 max       12996 min
Histogram: 1 0 0 0 0 0 1 0 0 4

Total # of neighbors = 111690
Ave neighs/atom = 17.991302
Ave special neighs/atom = 1.9793814
Neighbor list builds = 319
Dangerous builds = 0

if "${myDensity} > 1.0" then "jump SELF break"

next a
jump SELF loop
variable a loop 1000
change_box all x scale 0.95 y scale 0.95 z scale 0.95 remap
Changing box ...
  orthogonal box = (415.58588 405.87987 405.87987) to (784.41412 794.12013 794.12013)
  orthogonal box = (415.58588 415.58588 405.87987) to (784.41412 784.41412 794.12013)
  orthogonal box = (415.58588 415.58588 415.58588) to (784.41412 784.41412 784.41412)
run 8000
Per MPI rank memory allocation (min/avg/max) = 11.79 | 11.81 | 11.85 Mbytes
Step PotEng Temp Press KinEng Lx Ly Lz Pzz S/CPU Density 
 1182001     2516.631    344.86866    49.429972    6380.7212    368.82824    368.82824    368.82824    48.553493            0  0.023054719 
 1190001    498.51287     346.5357 -0.029380122    6411.5646    368.82824    368.82824    368.82824   0.13024194    1587.5989  0.023054719 
Loop time of 5.03918 on 6 procs for 8000 steps with 6208 atoms

Performance: 1371.651 ns/day, 0.017 hours/ns, 1587.559 timesteps/s
99.7% CPU use with 6 MPI tasks x no OpenMP threads

MPI task timing breakdown:
Section |  min time  |  avg time  |  max time  |%varavg| %total
---------------------------------------------------------------
Pair    | 2.2899     | 3.0457     | 3.615      |  25.6 | 60.44
Bond    | 0.064758   | 0.088983   | 0.10244    |   4.4 |  1.77
Neigh   | 0.35681    | 0.3584     | 0.35971    |   0.2 |  7.11
Comm    | 0.4257     | 1.0619     | 1.9391     |  49.8 | 21.07
Output  | 4.1008e-05 | 7.7049e-05 | 0.00018716 |   0.0 |  0.00
Modify  | 0.32688    | 0.44906    | 0.5198     |  10.1 |  8.91
Other   |            | 0.0351     |            |       |  0.70

Nlocal:        1034.67 ave        1234 max         766 min
Histogram: 1 0 1 0 0 1 0 1 0 2
Nghost:        1758.00 ave        1971 max        1607 min
Histogram: 1 2 0 0 0 1 1 0 0 1
Neighs:        19333.7 ave       23962 max       14904 min
Histogram: 2 0 0 1 0 1 0 0 1 1

Total # of neighbors = 116002
Ave neighs/atom = 18.685889
Ave special neighs/atom = 1.9793814
Neighbor list builds = 324
Dangerous builds = 0

if "${myDensity} > 1.0" then "jump SELF break"

next a
jump SELF loop
variable a loop 1000
change_box all x scale 0.95 y scale 0.95 z scale 0.95 remap
Changing box ...
  orthogonal box = (424.80659 415.58588 415.58588) to (775.19341 784.41412 784.41412)
  orthogonal box = (424.80659 424.80659 415.58588) to (775.19341 775.19341 784.41412)
  orthogonal box = (424.80659 424.80659 424.80659) to (775.19341 775.19341 775.19341)
run 8000
Per MPI rank memory allocation (min/avg/max) = 11.79 | 11.81 | 11.85 Mbytes
Step PotEng Temp Press KinEng Lx Ly Lz Pzz S/CPU Density 
 1190001     2623.543     346.5357    58.466771    6411.5646    350.38683    350.38683    350.38683    58.451952            0  0.026889889 
 1198001    469.80145    341.07029  -0.51330194    6310.4443    350.38683    350.38683    350.38683   -1.1039027    1535.0263  0.026889889 
Loop time of 5.21228 on 6 procs for 8000 steps with 6208 atoms

Performance: 1326.099 ns/day, 0.018 hours/ns, 1534.837 timesteps/s
99.7% CPU use with 6 MPI tasks x no OpenMP threads

MPI task timing breakdown:
Section |  min time  |  avg time  |  max time  |%varavg| %total
---------------------------------------------------------------
Pair    | 2.2263     | 3.0442     | 3.7299     |  29.4 | 58.40
Bond    | 0.067421   | 0.08881    | 0.10507    |   4.2 |  1.70
Neigh   | 0.36821    | 0.36961    | 0.37055    |   0.2 |  7.09
Comm    | 0.45063    | 1.2196     | 2.142      |  52.1 | 23.40
Output  | 4.1962e-05 | 0.0001595  | 0.00068617 |   0.0 |  0.00
Modify  | 0.33857    | 0.44708    | 0.53859    |   9.8 |  8.58
Other   |            | 0.04279    |            |       |  0.82

Nlocal:        1034.67 ave        1270 max         783 min
Histogram: 1 0 0 3 0 0 0 0 0 2
Nghost:        1819.83 ave        2171 max        1451 min
Histogram: 1 0 1 1 0 0 1 0 0 2
Neighs:        19159.0 ave       24408 max       13234 min
Histogram: 1 0 1 1 0 1 0 0 0 2

Total # of neighbors = 114954
Ave neighs/atom = 18.517075
Ave special neighs/atom = 1.9793814
Neighbor list builds = 321
Dangerous builds = 0

if "${myDensity} > 1.0" then "jump SELF break"

next a
jump SELF loop
variable a loop 1000
change_box all x scale 0.95 y scale 0.95 z scale 0.95 remap
Changing box ...
  orthogonal box = (433.56626 424.80659 424.80659) to (766.43374 775.19341 775.19341)
  orthogonal box = (433.56626 433.56626 424.80659) to (766.43374 766.43374 775.19341)
  orthogonal box = (433.56626 433.56626 433.56626) to (766.43374 766.43374 766.43374)
run 8000
Per MPI rank memory allocation (min/avg/max) = 11.79 | 11.81 | 11.85 Mbytes
Step PotEng Temp Press KinEng Lx Ly Lz Pzz S/CPU Density 
 1198001    2579.5218    341.07029    68.186899    6310.4443    332.86749    332.86749    332.86749    68.215449            0  0.031363043 
 1206001    421.75088    338.81598   0.14418197    6268.7353    332.86749    332.86749    332.86749  -0.49867763    1482.8086  0.031363043 
Loop time of 5.39529 on 6 procs for 8000 steps with 6208 atoms

Performance: 1281.117 ns/day, 0.019 hours/ns, 1482.774 timesteps/s
99.7% CPU use with 6 MPI tasks x no OpenMP threads

MPI task timing breakdown:
Section |  min time  |  avg time  |  max time  |%varavg| %total
---------------------------------------------------------------
Pair    | 2.0891     | 3.1466     | 3.888      |  35.2 | 58.32
Bond    | 0.069085   | 0.089163   | 0.10282    |   3.9 |  1.65
Neigh   | 0.37265    | 0.37489    | 0.37713    |   0.2 |  6.95
Comm    | 0.50396    | 1.298      | 2.457      |  59.9 | 24.06
Output  | 0.0025411  | 0.002704   | 0.00297    |   0.3 |  0.05
Modify  | 0.34864    | 0.44846    | 0.52856    |   9.0 |  8.31
Other   |            | 0.03539    |            |       |  0.66

Nlocal:        1034.67 ave        1170 max         840 min
Histogram: 1 0 0 1 0 1 0 1 0 2
Nghost:        1957.83 ave        2224 max        1661 min
Histogram: 1 1 0 0 1 0 0 2 0 1
Neighs:        19574.7 ave       25053 max       12916 min
Histogram: 1 0 0 0 2 0 0 2 0 1

Total # of neighbors = 117448
Ave neighs/atom = 18.918814
Ave special neighs/atom = 1.9793814
Neighbor list builds = 313
Dangerous builds = 0

if "${myDensity} > 1.0" then "jump SELF break"

next a
jump SELF loop
variable a loop 1000
change_box all x scale 0.95 y scale 0.95 z scale 0.95 remap
Changing box ...
  orthogonal box = (441.88794 433.56626 433.56626) to (758.11206 766.43374 766.43374)
  orthogonal box = (441.88794 441.88794 433.56626) to (758.11206 758.11206 766.43374)
  orthogonal box = (441.88794 441.88794 441.88794) to (758.11206 758.11206 758.11206)
run 8000
Per MPI rank memory allocation (min/avg/max) = 11.79 | 11.82 | 11.85 Mbytes
Step PotEng Temp Press KinEng Lx Ly Lz Pzz S/CPU Density 
 1206001    2573.1124    338.81598    79.656059    6268.7353    316.22411    316.22411    316.22411    78.034875            0   0.03658031 
 1214001      380.519    338.73793    1.0460754    6267.2913    316.22411    316.22411    316.22411   0.38156618     1395.201   0.03658031 
Loop time of 5.7357 on 6 procs for 8000 steps with 6208 atoms

Performance: 1205.085 ns/day, 0.020 hours/ns, 1394.774 timesteps/s
99.7% CPU use with 6 MPI tasks x no OpenMP threads

MPI task timing breakdown:
Section |  min time  |  avg time  |  max time  |%varavg| %total
---------------------------------------------------------------
Pair    | 2.5657     | 3.2677     | 4.1276     |  36.3 | 56.97
Bond    | 0.074272   | 0.089156   | 0.10242    |   3.7 |  1.55
Neigh   | 0.40657    | 0.40936    | 0.41096    |   0.2 |  7.14
Comm    | 0.56993    | 1.4815     | 2.2592     |  58.3 | 25.83
Output  | 4.1008e-05 | 0.00034547 | 0.0017979  |   0.0 |  0.01
Modify  | 0.37249    | 0.44813    | 0.52598    |   8.6 |  7.81
Other   |            | 0.03949    |            |       |  0.69

Nlocal:        1034.67 ave        1335 max         765 min
Histogram: 2 0 0 0 1 1 0 1 0 1
Nghost:        2205.17 ave        2640 max        1720 min
Histogram: 1 0 1 1 0 0 1 0 1 1
Neighs:        21228.7 ave       29078 max       15218 min
Histogram: 3 0 0 0 0 1 0 0 0 2

Total # of neighbors = 127372
Ave neighs/atom = 20.517397
Ave special neighs/atom = 1.9793814
Neighbor list builds = 312
Dangerous builds = 0

if "${myDensity} > 1.0" then "jump SELF break"

next a
jump SELF loop
variable a loop 1000
change_box all x scale 0.95 y scale 0.95 z scale 0.95 remap
Changing box ...
  orthogonal box = (449.79355 441.88794 441.88794) to (750.20645 758.11206 758.11206)
  orthogonal box = (449.79355 449.79355 441.88794) to (750.20645 750.20645 758.11206)
  orthogonal box = (449.79355 449.79355 449.79355) to (750.20645 750.20645 750.20645)
run 8000
Per MPI rank memory allocation (min/avg/max) = 11.79 | 11.82 | 11.85 Mbytes
Step PotEng Temp Press KinEng Lx Ly Lz Pzz S/CPU Density 
 1214001    2599.7916    338.73793    94.184067    6267.2913    300.41291    300.41291    300.41291    93.023392            0  0.042665473 
 1222001    418.25346    340.90133   -1.0761487    6307.3183    300.41291    300.41291    300.41291   -1.0659718    1197.5951  0.042665473 
Loop time of 6.68017 on 6 procs for 8000 steps with 6208 atoms

Performance: 1034.704 ns/day, 0.023 hours/ns, 1197.574 timesteps/s
99.6% CPU use with 6 MPI tasks x no OpenMP threads

MPI task timing breakdown:
Section |  min time  |  avg time  |  max time  |%varavg| %total
---------------------------------------------------------------
Pair    | 2.2851     | 3.4181     | 4.8885     |  51.1 | 51.17
Bond    | 0.067075   | 0.088914   | 0.11517    |   5.3 |  1.33
Neigh   | 0.50281    | 0.50469    | 0.50627    |   0.2 |  7.56
Comm    | 0.56084    | 2.1633     | 3.4032     |  69.2 | 32.38
Output  | 4.1008e-05 | 9.346e-05  | 0.00019097 |   0.0 |  0.00
Modify  | 0.33658    | 0.44701    | 0.58924    |  12.3 |  6.69
Other   |            | 0.05805    |            |       |  0.87

Nlocal:        1034.67 ave        1444 max         742 min
Histogram: 1 0 1 2 0 0 1 0 0 1
Nghost:        2318.67 ave        2782 max        1871 min
Histogram: 2 0 1 0 0 0 0 1 0 2
Neighs:        21190.2 ave       33983 max       13071 min
Histogram: 1 2 0 1 0 0 1 0 0 1

Total # of neighbors = 127141
Ave neighs/atom = 20.480187
Ave special neighs/atom = 1.9793814
Neighbor list builds = 316
Dangerous builds = 0

if "${myDensity} > 1.0" then "jump SELF break"

next a
jump SELF loop
variable a loop 1000
change_box all x scale 0.95 y scale 0.95 z scale 0.95 remap
Changing box ...
  orthogonal box = (457.30387 449.79355 449.79355) to (742.69613 750.20645 750.20645)
  orthogonal box = (457.30387 457.30387 449.79355) to (742.69613 742.69613 750.20645)
  orthogonal box = (457.30387 457.30387 457.30387) to (742.69613 742.69613 742.69613)
run 8000
Per MPI rank memory allocation (min/avg/max) = 11.79 | 11.82 | 11.85 Mbytes
Step PotEng Temp Press KinEng Lx Ly Lz Pzz S/CPU Density 
 1222001    2492.6136    340.90133    107.05009    6307.3183    285.39226    285.39226    285.39226     106.1829            0  0.049762908 
 1230001    333.02828    345.50699   0.34973879    6392.5317    285.39226    285.39226    285.39226 -0.068994084    1046.3888  0.049762908 
Loop time of 7.64547 on 6 procs for 8000 steps with 6208 atoms

Performance: 904.065 ns/day, 0.027 hours/ns, 1046.371 timesteps/s
99.7% CPU use with 6 MPI tasks x no OpenMP threads

MPI task timing breakdown:
Section |  min time  |  avg time  |  max time  |%varavg| %total
---------------------------------------------------------------
Pair    | 2.3214     | 3.4937     | 5.6899     |  62.0 | 45.70
Bond    | 0.06716    | 0.088733   | 0.12416    |   6.4 |  1.16
Neigh   | 0.61278    | 0.61579    | 0.61814    |   0.2 |  8.05
Comm    | 0.56023    | 2.932      | 4.2071     |  73.0 | 38.35
Output  | 4.1008e-05 | 8.5394e-05 | 0.00019002 |   0.0 |  0.00
Modify  | 0.3389     | 0.44628    | 0.63434    |  14.7 |  5.84
Other   |            | 0.06887    |            |       |  0.90

Nlocal:        1034.67 ave        1412 max         764 min
Histogram: 1 1 1 1 0 0 1 0 0 1
Nghost:        2449.83 ave        2930 max        1896 min
Histogram: 1 0 1 0 1 0 0 1 1 1
Neighs:        22289.7 ave       37978 max       13931 min
Histogram: 2 1 1 0 0 1 0 0 0 1

Total # of neighbors = 133738
Ave neighs/atom = 21.542848
Ave special neighs/atom = 1.9793814
Neighbor list builds = 316
Dangerous builds = 0

if "${myDensity} > 1.0" then "jump SELF break"

next a
jump SELF loop
variable a loop 1000
change_box all x scale 0.95 y scale 0.95 z scale 0.95 remap
Changing box ...
  orthogonal box = (464.43868 457.30387 457.30387) to (735.56132 742.69613 742.69613)
  orthogonal box = (464.43868 464.43868 457.30387) to (735.56132 735.56132 742.69613)
  orthogonal box = (464.43868 464.43868 464.43868) to (735.56132 735.56132 735.56132)
run 8000
Per MPI rank memory allocation (min/avg/max) = 11.79 | 11.82 | 11.85 Mbytes
Step PotEng Temp Press KinEng Lx Ly Lz Pzz S/CPU Density 
 1230001    2490.9606    345.50699    127.22575    6392.5317    271.12265    271.12265    271.12265    128.70089            0  0.058041006 
 1238001    336.78713     340.6218   -2.8475914    6302.1464    271.12265    271.12265    271.12265   -1.9197665    975.69378  0.058041006 
Loop time of 8.20149 on 6 procs for 8000 steps with 6208 atoms

Performance: 842.773 ns/day, 0.028 hours/ns, 975.432 timesteps/s
99.7% CPU use with 6 MPI tasks x no OpenMP threads

MPI task timing breakdown:
Section |  min time  |  avg time  |  max time  |%varavg| %total
---------------------------------------------------------------
Pair    | 2.6464     | 3.8331     | 6.1825     |  62.7 | 46.74
Bond    | 0.069557   | 0.088781   | 0.11933    |   5.7 |  1.08
Neigh   | 0.67943    | 0.68153    | 0.68421    |   0.2 |  8.31
Comm    | 0.58691    | 3.0877     | 4.3749     |  74.6 | 37.65
Output  | 4.0054e-05 | 0.00042951 | 0.00226    |   0.0 |  0.01
Modify  | 0.35196    | 0.44509    | 0.60656    |  13.0 |  5.43
Other   |            | 0.06489    |            |       |  0.79

Nlocal:        1034.67 ave        1425 max         827 min
Histogram: 2 0 1 1 1 0 0 0 0 1
Nghost:        2570.33 ave        2897 max        2200 min
Histogram: 1 0 0 1 1 0 1 1 0 1
Neighs:        25205.8 ave       40906 max       15891 min
Histogram: 1 2 1 0 0 0 1 0 0 1

Total # of neighbors = 151235
Ave neighs/atom = 24.361308
Ave special neighs/atom = 1.9793814
Neighbor list builds = 325
Dangerous builds = 0

if "${myDensity} > 1.0" then "jump SELF break"

next a
jump SELF loop
variable a loop 1000
change_box all x scale 0.95 y scale 0.95 z scale 0.95 remap
Changing box ...
  orthogonal box = (471.21674 464.43868 464.43868) to (728.78326 735.56132 735.56132)
  orthogonal box = (471.21674 471.21674 464.43868) to (728.78326 728.78326 735.56132)
  orthogonal box = (471.21674 471.21674 471.21674) to (728.78326 728.78326 728.78326)
run 8000
Per MPI rank memory allocation (min/avg/max) = 11.80 | 11.83 | 11.86 Mbytes
Step PotEng Temp Press KinEng Lx Ly Lz Pzz S/CPU Density 
 1238001    2368.4547     340.6218    145.16504    6302.1464    257.56652    257.56652    257.56652    146.62272            0  0.067696173 
 1246001     397.6284    336.22441  -0.07605518    6220.7863    257.56652    257.56652    257.56652   0.74276409    926.11071  0.067696173 
Loop time of 8.6384 on 6 procs for 8000 steps with 6208 atoms

Performance: 800.149 ns/day, 0.030 hours/ns, 926.098 timesteps/s
99.7% CPU use with 6 MPI tasks x no OpenMP threads

MPI task timing breakdown:
Section |  min time  |  avg time  |  max time  |%varavg| %total
---------------------------------------------------------------
Pair    | 2.646      | 3.9029     | 6.4935     |  66.1 | 45.18
Bond    | 0.074112   | 0.088958   | 0.12288    |   5.6 |  1.03
Neigh   | 0.69942    | 0.70612    | 0.71173    |   0.6 |  8.17
Comm    | 0.67219    | 3.4239     | 4.7496     |  74.9 | 39.64
Output  | 4.1962e-05 | 9.2427e-05 | 0.00019884 |   0.0 |  0.00
Modify  | 0.37475    | 0.4456     | 0.62517    |  13.0 |  5.16
Other   |            | 0.07078    |            |       |  0.82

Nlocal:        1034.67 ave        1513 max         845 min
Histogram: 3 0 1 0 1 0 0 0 0 1
Nghost:        2831.00 ave        3241 max        2580 min
Histogram: 1 1 1 0 2 0 0 0 0 1
Neighs:        24438.5 ave       45057 max       15278 min
Histogram: 2 2 0 0 1 0 0 0 0 1

Total # of neighbors = 146631
Ave neighs/atom = 23.619684
Ave special neighs/atom = 1.9793814
Neighbor list builds = 317
Dangerous builds = 0

if "${myDensity} > 1.0" then "jump SELF break"

next a
jump SELF loop
variable a loop 1000
change_box all x scale 0.95 y scale 0.95 z scale 0.95 remap
Changing box ...
  orthogonal box = (477.65590 471.21674 471.21674) to (722.34410 728.78326 728.78326)
  orthogonal box = (477.65590 477.65590 471.21674) to (722.34410 722.34410 728.78326)
  orthogonal box = (477.65590 477.65590 477.65590) to (722.34410 722.34410 722.34410)
run 8000
Per MPI rank memory allocation (min/avg/max) = 11.80 | 11.83 | 11.86 Mbytes
Step PotEng Temp Press KinEng Lx Ly Lz Pzz S/CPU Density 
 1246001    2548.4594    336.22441    172.23124    6220.7863    244.68819    244.68819    244.68819    172.47416            0  0.078957484 
 1254001     292.7473    345.62697  -0.79556892    6394.7516    244.68819    244.68819    244.68819    0.6773184    810.02412  0.078957484 
Loop time of 9.87639 on 6 procs for 8000 steps with 6208 atoms

Performance: 699.851 ns/day, 0.034 hours/ns, 810.013 timesteps/s
99.6% CPU use with 6 MPI tasks x no OpenMP threads

MPI task timing breakdown:
Section |  min time  |  avg time  |  max time  |%varavg| %total
---------------------------------------------------------------
Pair    | 2.6741     | 4.0127     | 7.3595     |  80.8 | 40.63
Bond    | 0.073391   | 0.089109   | 0.13852    |   7.9 |  0.90
Neigh   | 0.83632    | 0.84388    | 0.84902    |   0.6 |  8.54
Comm    | 0.8039     | 4.387      | 5.805      |  82.7 | 44.42
Output  | 4.5061e-05 | 0.00011337 | 0.00023413 |   0.0 |  0.00
Modify  | 0.364      | 0.44544    | 0.70273    |  18.2 |  4.51
Other   |            | 0.09812    |            |       |  0.99

Nlocal:        1034.67 ave        1702 max         742 min
Histogram: 2 2 0 0 1 0 0 0 0 1
Nghost:        3136.33 ave        3551 max        2733 min
Histogram: 1 0 1 0 0 2 1 0 0 1
Neighs:        26212.5 ave       52803 max       15905 min
Histogram: 3 1 0 1 0 0 0 0 0 1

Total # of neighbors = 157275
Ave neighs/atom = 25.334246
Ave special neighs/atom = 1.9793814
Neighbor list builds = 311
Dangerous builds = 0

if "${myDensity} > 1.0" then "jump SELF break"

next a
jump SELF loop
variable a loop 1000
change_box all x scale 0.95 y scale 0.95 z scale 0.95 remap
Changing box ...
  orthogonal box = (483.77311 477.65590 477.65590) to (716.22689 722.34410 722.34410)
  orthogonal box = (483.77311 483.77311 477.65590) to (716.22689 716.22689 722.34410)
  orthogonal box = (483.77311 483.77311 483.77311) to (716.22689 716.22689 716.22689)
run 8000
Per MPI rank memory allocation (min/avg/max) = 11.80 | 11.83 | 11.86 Mbytes
Step PotEng Temp Press KinEng Lx Ly Lz Pzz S/CPU Density 
 1254001    2424.2193    345.62697    201.92359    6394.7516    232.45378    232.45378    232.45378    205.01278            0  0.092092123 
 1262001    210.17788    342.19884  -0.30403822    6331.3245    232.45378    232.45378    232.45378   -3.5984501    745.85809  0.092092123 
Loop time of 10.726 on 6 procs for 8000 steps with 6208 atoms

Performance: 644.413 ns/day, 0.037 hours/ns, 745.849 timesteps/s
99.7% CPU use with 6 MPI tasks x no OpenMP threads

MPI task timing breakdown:
Section |  min time  |  avg time  |  max time  |%varavg| %total
---------------------------------------------------------------
Pair    | 2.9612     | 4.378      | 8.0707     |  84.7 | 40.82
Bond    | 0.067889   | 0.089361   | 0.13918    |   8.2 |  0.83
Neigh   | 0.90657    | 0.91529    | 0.92187    |   0.6 |  8.53
Comm    | 0.87503    | 4.7999     | 6.3079     |  86.1 | 44.75
Output  | 4.6015e-05 | 0.00010995 | 0.00023007 |   0.0 |  0.00
Modify  | 0.3397     | 0.44559    | 0.70233    |  18.7 |  4.15
Other   |            | 0.09776    |            |       |  0.91

Nlocal:        1034.67 ave        1613 max         811 min
Histogram: 3 1 0 0 1 0 0 0 0 1
Nghost:        3453.83 ave        3658 max        3175 min
Histogram: 1 0 1 0 0 0 1 2 0 1
Neighs:        28916.0 ave       54047 max       19914 min
Histogram: 3 1 0 1 0 0 0 0 0 1

Total # of neighbors = 173496
Ave neighs/atom = 27.947165
Ave special neighs/atom = 1.9793814
Neighbor list builds = 318
Dangerous builds = 0

if "${myDensity} > 1.0" then "jump SELF break"

next a
jump SELF loop
variable a loop 1000
change_box all x scale 0.95 y scale 0.95 z scale 0.95 remap
Changing box ...
  orthogonal box = (489.58445 483.77311 483.77311) to (710.41555 716.22689 716.22689)
  orthogonal box = (489.58445 489.58445 483.77311) to (710.41555 710.41555 716.22689)
  orthogonal box = (489.58445 489.58445 489.58445) to (710.41555 710.41555 710.41555)
run 8000
Per MPI rank memory allocation (min/avg/max) = 11.81 | 11.84 | 11.87 Mbytes
Step PotEng Temp Press KinEng Lx Ly Lz Pzz S/CPU Density 
 1262001    2385.2092    342.19884    238.10671    6331.3245    220.83109    220.83109    220.83109    236.06076            0   0.10741172 
 1270001    84.780854    345.22864    1.8967973    6387.3817    220.83109    220.83109    220.83109    3.2606189    686.65684   0.10741172 
Loop time of 11.6508 on 6 procs for 8000 steps with 6208 atoms

Performance: 593.266 ns/day, 0.040 hours/ns, 686.650 timesteps/s
99.5% CPU use with 6 MPI tasks x no OpenMP threads

MPI task timing breakdown:
Section |  min time  |  avg time  |  max time  |%varavg| %total
---------------------------------------------------------------
Pair    | 2.9697     | 4.7125     | 8.7623     |  88.0 | 40.45
Bond    | 0.064853   | 0.089566   | 0.14279    |   8.8 |  0.77
Neigh   | 0.96828    | 0.97274    | 0.97651    |   0.4 |  8.35
Comm    | 1.0235     | 5.3082     | 7.1785     |  88.0 | 45.56
Output  | 4.1962e-05 | 0.00010788 | 0.00022006 |   0.0 |  0.00
Modify  | 0.32592    | 0.44601    | 0.71989    |  20.2 |  3.83
Other   |            | 0.1216     |            |       |  1.04

Nlocal:        1034.67 ave        1695 max         643 min
Histogram: 1 2 0 1 0 1 0 0 0 1
Nghost:        3720.50 ave        4051 max        3372 min
Histogram: 2 0 0 0 0 1 1 1 0 1
Neighs:        31409.0 ave       57273 max       18137 min
Histogram: 1 2 0 1 1 0 0 0 0 1

Total # of neighbors = 188454
Ave neighs/atom = 30.356637
Ave special neighs/atom = 1.9793814
Neighbor list builds = 321
Dangerous builds = 0

if "${myDensity} > 1.0" then "jump SELF break"

next a
jump SELF loop
variable a loop 1000
change_box all x scale 0.95 y scale 0.95 z scale 0.95 remap
Changing box ...
  orthogonal box = (495.10523 489.58445 489.58445) to (704.89477 710.41555 710.41555)
  orthogonal box = (495.10523 495.10523 489.58445) to (704.89477 704.89477 710.41555)
  orthogonal box = (495.10523 495.10523 495.10523) to (704.89477 704.89477 704.89477)
run 8000
Per MPI rank memory allocation (min/avg/max) = 11.81 | 11.84 | 11.88 Mbytes
Step PotEng Temp Press KinEng Lx Ly Lz Pzz S/CPU Density 
 1270001    2319.9586    345.22864    281.55793    6387.3817    209.78954    209.78954    209.78954    284.44599            0   0.12527974 
 1278001    47.036327    339.83712     2.860007    6287.6284    209.78954    209.78954    209.78954    6.0804865    717.75316   0.12527974 
Loop time of 11.1466 on 6 procs for 8000 steps with 6208 atoms

Performance: 620.101 ns/day, 0.039 hours/ns, 717.709 timesteps/s
99.6% CPU use with 6 MPI tasks x no OpenMP threads

MPI task timing breakdown:
Section |  min time  |  avg time  |  max time  |%varavg| %total
---------------------------------------------------------------
Pair    | 3.7892     | 5.0765     | 8.2513     |  67.5 | 45.54
Bond    | 0.070183   | 0.090197   | 0.13389    |   7.5 |  0.81
Neigh   | 0.96316    | 0.96667    | 0.97022    |   0.3 |  8.67
Comm    | 1.0937     | 4.4627     | 5.8257     |  76.8 | 40.04
Output  | 4.2915e-05 | 0.00019109 | 0.000772   |   0.0 |  0.00
Modify  | 0.34864    | 0.44837    | 0.67463    |  17.1 |  4.02
Other   |            | 0.1019     |            |       |  0.91

Nlocal:        1034.67 ave        1401 max         819 min
Histogram: 2 0 1 1 0 1 0 0 0 1
Nghost:        4039.67 ave        5012 max        3370 min
Histogram: 1 1 2 0 0 0 0 0 1 1
Neighs:        32837.2 ave       46877 max       25386 min
Histogram: 2 1 0 0 2 0 0 0 0 1

Total # of neighbors = 197023
Ave neighs/atom = 31.736952
Ave special neighs/atom = 1.9793814
Neighbor list builds = 318
Dangerous builds = 0

if "${myDensity} > 1.0" then "jump SELF break"

next a
jump SELF loop
variable a loop 1000
change_box all x scale 0.95 y scale 0.95 z scale 0.95 remap
Changing box ...
  orthogonal box = (500.34997 495.10523 495.10523) to (699.65003 704.89477 704.89477)
  orthogonal box = (500.34997 500.34997 495.10523) to (699.65003 699.65003 704.89477)
  orthogonal box = (500.34997 500.34997 500.34997) to (699.65003 699.65003 699.65003)
run 8000
Per MPI rank memory allocation (min/avg/max) = 11.81 | 11.84 | 11.89 Mbytes
Step PotEng Temp Press KinEng Lx Ly Lz Pzz S/CPU Density 
 1278001    2277.6212    339.83712    325.70818    6287.6284    199.30006    199.30006    199.30006     325.8926            0   0.14612013 
 1286001    170.59808     345.6041    3.2535777    6394.3284    199.30006    199.30006    199.30006    7.5498498    768.63093   0.14612013 
Loop time of 10.409 on 6 procs for 8000 steps with 6208 atoms

Performance: 664.038 ns/day, 0.036 hours/ns, 768.563 timesteps/s
99.6% CPU use with 6 MPI tasks x no OpenMP threads

MPI task timing breakdown:
Section |  min time  |  avg time  |  max time  |%varavg| %total
---------------------------------------------------------------
Pair    | 3.7076     | 5.1998     | 7.6069     |  57.8 | 49.96
Bond    | 0.071628   | 0.090466   | 0.12456    |   5.9 |  0.87
Neigh   | 0.89659    | 0.89971    | 0.90372    |   0.3 |  8.64
Comm    | 1.1234     | 3.6791     | 5.2701     |  72.9 | 35.35
Output  | 4.0054e-05 | 0.0002315  | 0.0010149  |   0.0 |  0.00
Modify  | 0.35537    | 0.44895    | 0.62695    |  13.5 |  4.31
Other   |            | 0.09073    |            |       |  0.87

Nlocal:        1034.67 ave        1474 max         804 min
Histogram: 1 2 0 1 0 1 0 0 0 1
Nghost:        4217.17 ave        5209 max        3745 min
Histogram: 3 0 1 0 0 0 1 0 0 1
Neighs:        33353.2 ave       51365 max       23330 min
Histogram: 2 0 1 1 0 1 0 0 0 1

Total # of neighbors = 200119
Ave neighs/atom = 32.235664
Ave special neighs/atom = 1.9793814
Neighbor list builds = 322
Dangerous builds = 0

if "${myDensity} > 1.0" then "jump SELF break"

next a
jump SELF loop
variable a loop 1000
change_box all x scale 0.95 y scale 0.95 z scale 0.95 remap
Changing box ...
  orthogonal box = (505.33247 500.34997 500.34997) to (694.66753 699.65003 699.65003)
  orthogonal box = (505.33247 505.33247 500.34997) to (694.66753 694.66753 699.65003)
  orthogonal box = (505.33247 505.33247 505.33247) to (694.66753 694.66753 694.66753)
run 8000
Per MPI rank memory allocation (min/avg/max) = 11.81 | 11.85 | 11.89 Mbytes
Step PotEng Temp Press KinEng Lx Ly Lz Pzz S/CPU Density 
 1286001    2421.5738     345.6041    384.57515    6394.3284    189.33506    189.33506    189.33506     391.0129            0   0.17042732 
 1294001    23.853113    343.47909    7.4844481    6355.0117    189.33506    189.33506    189.33506    6.1348703    703.14359   0.17042732 
Loop time of 11.3781 on 6 procs for 8000 steps with 6208 atoms

Performance: 607.485 ns/day, 0.040 hours/ns, 703.107 timesteps/s
99.6% CPU use with 6 MPI tasks x no OpenMP threads

MPI task timing breakdown:
Section |  min time  |  avg time  |  max time  |%varavg| %total
---------------------------------------------------------------
Pair    | 4.093      | 5.2939     | 8.4058     |  63.8 | 46.53
Bond    | 0.076657   | 0.091643   | 0.13205    |   6.4 |  0.81
Neigh   | 0.99295    | 0.99571    | 0.99891    |   0.2 |  8.75
Comm    | 1.1631     | 4.4516     | 5.7342     |  73.6 | 39.12
Output  | 4.1008e-05 | 0.0001802  | 0.00068212 |   0.0 |  0.00
Modify  | 0.37534    | 0.44785    | 0.65269    |  14.5 |  3.94
Other   |            | 0.09721    |            |       |  0.85

Nlocal:        1034.67 ave        1531 max         878 min
Histogram: 4 0 0 1 0 0 0 0 0 1
Nghost:        4818.67 ave        5619 max        4206 min
Histogram: 1 1 1 1 0 0 0 0 0 2
Neighs:        34098.0 ave       57296 max       25668 min
Histogram: 3 0 1 1 0 0 0 0 0 1

Total # of neighbors = 204588
Ave neighs/atom = 32.955541
Ave special neighs/atom = 1.9793814
Neighbor list builds = 321
Dangerous builds = 0

if "${myDensity} > 1.0" then "jump SELF break"

next a
jump SELF loop
variable a loop 1000
change_box all x scale 0.95 y scale 0.95 z scale 0.95 remap
Changing box ...
  orthogonal box = (510.06585 505.33247 505.33247) to (689.93415 694.66753 694.66753)
  orthogonal box = (510.06585 510.06585 505.33247) to (689.93415 689.93415 694.66753)
  orthogonal box = (510.06585 510.06585 510.06585) to (689.93415 689.93415 689.93415)
run 8000
Per MPI rank memory allocation (min/avg/max) = 11.83 | 11.85 | 11.90 Mbytes
Step PotEng Temp Press KinEng Lx Ly Lz Pzz S/CPU Density 
 1294001     2328.683    343.47909    451.88353    6355.0117     179.8683     179.8683     179.8683    446.42596            0   0.19877804 
 1302001   -65.157913    345.27103   -1.3694644     6388.166     179.8683     179.8683     179.8683   -6.1832424      671.759   0.19877804 
Loop time of 11.91 on 6 procs for 8000 steps with 6208 atoms

Performance: 580.350 ns/day, 0.041 hours/ns, 671.702 timesteps/s
99.5% CPU use with 6 MPI tasks x no OpenMP threads

MPI task timing breakdown:
Section |  min time  |  avg time  |  max time  |%varavg| %total
---------------------------------------------------------------
Pair    | 3.7107     | 5.6227     | 8.7709     |  71.5 | 47.21
Bond    | 0.071892   | 0.091295   | 0.12904    |   6.6 |  0.77
Neigh   | 1.0201     | 1.0225     | 1.0246     |   0.2 |  8.59
Comm    | 1.308      | 4.6159     | 6.6244     |  83.0 | 38.76
Output  | 0.0025747  | 0.002925   | 0.0039828  |   0.9 |  0.02
Modify  | 0.34979    | 0.44991    | 0.64406    |  15.1 |  3.78
Other   |            | 0.1048     |            |       |  0.88

Nlocal:        1034.67 ave        1487 max         829 min
Histogram: 3 0 1 0 1 0 0 0 0 1
Nghost:        5379.83 ave        6186 max        4826 min
Histogram: 1 2 1 0 0 0 0 0 0 2
Neighs:        37639.8 ave       60573 max       26366 min
Histogram: 2 1 1 0 0 1 0 0 0 1

Total # of neighbors = 225839
Ave neighs/atom = 36.378705
Ave special neighs/atom = 1.9793814
Neighbor list builds = 314
Dangerous builds = 0

if "${myDensity} > 1.0" then "jump SELF break"

next a
jump SELF loop
variable a loop 1000
change_box all x scale 0.95 y scale 0.95 z scale 0.95 remap
Changing box ...
  orthogonal box = (514.56256 510.06585 510.06585) to (685.43744 689.93415 689.93415)
  orthogonal box = (514.56256 514.56256 510.06585) to (685.43744 685.43744 689.93415)
  orthogonal box = (514.56256 514.56256 514.56256) to (685.43744 685.43744 685.43744)
run 8000
Per MPI rank memory allocation (min/avg/max) = 11.84 | 11.87 | 11.91 Mbytes
Step PotEng Temp Press KinEng Lx Ly Lz Pzz S/CPU Density 
 1302001    2107.2957    345.27103     515.8263     6388.166    170.87489    170.87489    170.87489    505.25162            0   0.23184492 
 1310001   -218.85395    340.32989   0.89889744    6296.7455    170.87489    170.87489    170.87489   -2.3687572    584.70825   0.23184492 
Loop time of 13.6833 on 6 procs for 8000 steps with 6208 atoms

Performance: 505.143 ns/day, 0.048 hours/ns, 584.656 timesteps/s
99.1% CPU use with 6 MPI tasks x no OpenMP threads

MPI task timing breakdown:
Section |  min time  |  avg time  |  max time  |%varavg| %total
---------------------------------------------------------------
Pair    | 4.4996     | 6.2773     | 10.307     |  78.6 | 45.88
Bond    | 0.073711   | 0.091795   | 0.13235    |   6.5 |  0.67
Neigh   | 1.1523     | 1.1537     | 1.1554     |   0.1 |  8.43
Comm    | 1.3891     | 5.5755     | 7.4144     |  86.9 | 40.75
Output  | 4.6968e-05 | 0.00029687 | 0.0013371  |   0.0 |  0.00
Modify  | 0.35853    | 0.45061    | 0.65917    |  15.0 |  3.29
Other   |            | 0.1341     |            |       |  0.98

Nlocal:        1034.67 ave        1569 max         843 min
Histogram: 3 0 2 0 0 0 0 0 0 1
Nghost:        5652.83 ave        6490 max        4967 min
Histogram: 1 2 0 0 1 0 0 0 0 2
Neighs:        41822.0 ave       73510 max       29775 min
Histogram: 3 0 2 0 0 0 0 0 0 1

Total # of neighbors = 250932
Ave neighs/atom = 40.420747
Ave special neighs/atom = 1.9793814
Neighbor list builds = 307
Dangerous builds = 0

if "${myDensity} > 1.0" then "jump SELF break"

next a
jump SELF loop
variable a loop 1000
change_box all x scale 0.95 y scale 0.95 z scale 0.95 remap
Changing box ...
  orthogonal box = (518.83443 514.56256 514.56256) to (681.16557 685.43744 685.43744)
  orthogonal box = (518.83443 518.83443 514.56256) to (681.16557 681.16557 685.43744)
  orthogonal box = (518.83443 518.83443 518.83443) to (681.16557 681.16557 681.16557)
run 8000
Per MPI rank memory allocation (min/avg/max) = 11.85 | 11.88 | 11.92 Mbytes
Step PotEng Temp Press KinEng Lx Ly Lz Pzz S/CPU Density 
 1310001    2000.7531    340.32989    607.27849    6296.7455    162.33115    162.33115    162.33115    595.55117            0   0.27041251 
 1318001    -146.6308    341.67214   -3.5541708    6321.5797    162.33115    162.33115    162.33115   -8.0328202    610.04722   0.27041251 
Loop time of 13.1148 on 6 procs for 8000 steps with 6208 atoms

Performance: 527.037 ns/day, 0.046 hours/ns, 609.996 timesteps/s
98.8% CPU use with 6 MPI tasks x no OpenMP threads

MPI task timing breakdown:
Section |  min time  |  avg time  |  max time  |%varavg| %total
---------------------------------------------------------------
Pair    | 4.8654     | 6.6627     | 9.7033     |  65.8 | 50.80
Bond    | 0.072157   | 0.093618   | 0.12711    |   6.1 |  0.71
Neigh   | 1.1461     | 1.1479     | 1.15       |   0.1 |  8.75
Comm    | 1.4841     | 4.63       | 6.5062     |  82.5 | 35.30
Output  | 4.4107e-05 | 0.00026317 | 0.00121    |   0.0 |  0.00
Modify  | 0.35116    | 0.45092    | 0.61161    |  13.2 |  3.44
Other   |            | 0.1294     |            |       |  0.99

Nlocal:        1034.67 ave        1438 max         774 min
Histogram: 2 0 1 1 0 0 1 0 0 1
Nghost:        6006.83 ave        6727 max        5406 min
Histogram: 2 0 1 0 0 1 0 0 1 1
Neighs:        42705.3 ave       64938 max       24967 min
Histogram: 1 1 0 2 0 0 0 1 0 1

Total # of neighbors = 256232
Ave neighs/atom = 41.274485
Ave special neighs/atom = 1.9793814
Neighbor list builds = 313
Dangerous builds = 0

if "${myDensity} > 1.0" then "jump SELF break"

next a
jump SELF loop
variable a loop 1000
change_box all x scale 0.95 y scale 0.95 z scale 0.95 remap
Changing box ...
  orthogonal box = (522.89271 518.83443 518.83443) to (677.10729 681.16557 681.16557)
  orthogonal box = (522.89271 522.89271 518.83443) to (677.10729 677.10729 681.16557)
  orthogonal box = (522.89271 522.89271 522.89271) to (677.10729 677.10729 677.10729)
run 8000
Per MPI rank memory allocation (min/avg/max) = 11.85 | 11.88 | 11.92 Mbytes
Step PotEng Temp Press KinEng Lx Ly Lz Pzz S/CPU Density 
 1318001     2032.324    341.67214     705.3488    6321.5797    154.21459    154.21459    154.21459    696.33677            0   0.31539584 
 1326001   -195.91517    340.38254   -8.1920227    6297.7196    154.21459    154.21459    154.21459   -16.986755    533.93946   0.31539584 
Loop time of 14.9849 on 6 procs for 8000 steps with 6208 atoms

Performance: 461.265 ns/day, 0.052 hours/ns, 533.871 timesteps/s
98.8% CPU use with 6 MPI tasks x no OpenMP threads

MPI task timing breakdown:
Section |  min time  |  avg time  |  max time  |%varavg| %total
---------------------------------------------------------------
Pair    | 3.9501     | 7.1369     | 11.079     | 100.8 | 47.63
Bond    | 0.063454   | 0.092291   | 0.12268    |   7.6 |  0.62
Neigh   | 1.4251     | 1.4291     | 1.4331     |   0.3 |  9.54
Comm    | 1.6024     | 5.7383     | 9.0544     | 117.4 | 38.29
Output  | 4.1962e-05 | 0.00039033 | 0.002023   |   0.0 |  0.00
Modify  | 0.30612    | 0.45178    | 0.5957     |  17.0 |  3.01
Other   |            | 0.1361     |            |       |  0.91

Nlocal:        1034.67 ave        1455 max         667 min
Histogram: 1 1 0 1 0 1 0 0 1 1
Nghost:        6507.67 ave        7060 max        6087 min
Histogram: 2 0 0 1 1 0 1 0 0 1
Neighs:        46288.2 ave       80624 max       25270 min
Histogram: 2 0 1 1 0 0 1 0 0 1

Total # of neighbors = 277729
Ave neighs/atom = 44.737274
Ave special neighs/atom = 1.9793814
Neighbor list builds = 315
Dangerous builds = 0

if "${myDensity} > 1.0" then "jump SELF break"

next a
jump SELF loop
variable a loop 1000
change_box all x scale 0.95 y scale 0.95 z scale 0.95 remap
Changing box ...
  orthogonal box = (526.74807 522.89271 522.89271) to (673.25193 677.10729 677.10729)
  orthogonal box = (526.74807 526.74807 522.89271) to (673.25193 673.25193 677.10729)
  orthogonal box = (526.74807 526.74807 526.74807) to (673.25193 673.25193 673.25193)
run 8000
Per MPI rank memory allocation (min/avg/max) = 11.86 | 11.89 | 11.93 Mbytes
Step PotEng Temp Press KinEng Lx Ly Lz Pzz S/CPU Density 
 1326001    1957.2513    340.38254    818.50346    6297.7196    146.50386    146.50386    146.50386    796.12456            0   0.36786218 
 1334001   -391.07123    343.62867   -1.6275961    6357.7791    146.50386    146.50386    146.50386   -7.3436091    479.61789   0.36786218 
Loop time of 16.6807 on 6 procs for 8000 steps with 6208 atoms

Performance: 414.370 ns/day, 0.058 hours/ns, 479.595 timesteps/s
98.2% CPU use with 6 MPI tasks x no OpenMP threads

MPI task timing breakdown:
Section |  min time  |  avg time  |  max time  |%varavg| %total
---------------------------------------------------------------
Pair    | 4.514      | 7.771      | 12.49      |  99.4 | 46.59
Bond    | 0.065535   | 0.092984   | 0.12388    |   6.9 |  0.56
Neigh   | 1.5806     | 1.5843     | 1.589      |   0.3 |  9.50
Comm    | 1.7322     | 6.6199     | 10.004     | 112.1 | 39.69
Output  | 4.7922e-05 | 0.00020679 | 0.00089908 |   0.0 |  0.00
Modify  | 0.31325    | 0.45394    | 0.59929    |  15.5 |  2.72
Other   |            | 0.1585     |            |       |  0.95

Nlocal:        1034.67 ave        1392 max         726 min
Histogram: 1 1 1 0 0 0 1 1 0 1
Nghost:        7212.17 ave        7741 max        6949 min
Histogram: 2 0 1 1 1 0 0 0 0 1
Neighs:        51303.3 ave       83570 max       28719 min
Histogram: 2 0 1 0 0 2 0 0 0 1

Total # of neighbors = 307820
Ave neighs/atom = 49.584407
Ave special neighs/atom = 1.9793814
Neighbor list builds = 316
Dangerous builds = 0

if "${myDensity} > 1.0" then "jump SELF break"

next a
jump SELF loop
variable a loop 1000
change_box all x scale 0.95 y scale 0.95 z scale 0.95 remap
Changing box ...
  orthogonal box = (530.41067 526.74807 526.74807) to (669.58933 673.25193 673.25193)
  orthogonal box = (530.41067 530.41067 526.74807) to (669.58933 669.58933 673.25193)
  orthogonal box = (530.41067 530.41067 530.41067) to (669.58933 669.58933 669.58933)
run 8000
Per MPI rank memory allocation (min/avg/max) = 11.87 | 11.90 | 11.94 Mbytes
Step PotEng Temp Press KinEng Lx Ly Lz Pzz S/CPU Density 
 1334001    1833.3985    343.62867    973.36543    6357.7791    139.17867    139.17867    139.17867    970.70118            0   0.42905634 
 1342001   -449.00817    343.63876   -1.1488322    6357.9659    139.17867    139.17867    139.17867    21.149494    500.94789   0.42905634 
Loop time of 15.9718 on 6 procs for 8000 steps with 6208 atoms

Performance: 432.761 ns/day, 0.055 hours/ns, 500.881 timesteps/s
97.5% CPU use with 6 MPI tasks x no OpenMP threads

MPI task timing breakdown:
Section |  min time  |  avg time  |  max time  |%varavg| %total
---------------------------------------------------------------
Pair    | 6.0742     | 8.4471     | 11.793     |  78.8 | 52.89
Bond    | 0.076262   | 0.096218   | 0.11884    |   5.9 |  0.60
Neigh   | 1.5562     | 1.5589     | 1.5617     |   0.2 |  9.76
Comm    | 1.7788     | 5.2352     | 7.6349     | 103.2 | 32.78
Output  | 4.3869e-05 | 0.00041509 | 0.0021961  |   0.0 |  0.00
Modify  | 0.35892    | 0.45332    | 0.55767    |  12.5 |  2.84
Other   |            | 0.1807     |            |       |  1.13

Nlocal:        1034.67 ave        1261 max         813 min
Histogram: 2 1 0 0 0 0 0 0 2 1
Nghost:        8060.17 ave        8359 max        7838 min
Histogram: 1 0 1 1 1 1 0 0 0 1
Neighs:        54686.2 ave       75654 max       35021 min
Histogram: 1 2 0 0 0 0 0 1 1 1

Total # of neighbors = 328117
Ave neighs/atom = 52.853898
Ave special neighs/atom = 1.9793814
Neighbor list builds = 321
Dangerous builds = 0

if "${myDensity} > 1.0" then "jump SELF break"

next a
jump SELF loop
variable a loop 1000
change_box all x scale 0.95 y scale 0.95 z scale 0.95 remap
Changing box ...
  orthogonal box = (533.89013 530.41067 530.41067) to (666.10987 669.58933 669.58933)
  orthogonal box = (533.89013 533.89013 530.41067) to (666.10987 666.10987 669.58933)
  orthogonal box = (533.89013 533.89013 533.89013) to (666.10987 666.10987 666.10987)
run 8000
Per MPI rank memory allocation (min/avg/max) = 11.88 | 11.91 | 11.94 Mbytes
Step PotEng Temp Press KinEng Lx Ly Lz Pzz S/CPU Density 
 1342001    1805.5351    343.63876    1146.8265    6357.9659    132.21973    132.21973    132.21973    1197.6717            0    0.5004302 
 1350001   -621.89425      341.559    22.836708    6319.4863    132.21973    132.21973    132.21973    7.6941745     504.6493    0.5004302 
Loop time of 15.8548 on 6 procs for 8000 steps with 6208 atoms

Performance: 435.957 ns/day, 0.055 hours/ns, 504.580 timesteps/s
96.9% CPU use with 6 MPI tasks x no OpenMP threads

MPI task timing breakdown:
Section |  min time  |  avg time  |  max time  |%varavg| %total
---------------------------------------------------------------
Pair    | 6.6615     | 9.3401     | 11.624     |  64.5 | 58.91
Bond    | 0.080878   | 0.097096   | 0.11082    |   4.2 |  0.61
Neigh   | 1.3651     | 1.3673     | 1.3695     |   0.1 |  8.62
Comm    | 2.0632     | 4.3965     | 7.124      |  96.0 | 27.73
Output  | 4.3154e-05 | 0.00041691 | 0.002238   |   0.0 |  0.00
Modify  | 0.37808    | 0.45347    | 0.51473    |   9.1 |  2.86
Other   |            | 0.1998     |            |       |  1.26

Nlocal:        1034.67 ave        1134 max         902 min
Histogram: 2 0 0 0 0 1 0 0 1 2
Nghost:        8666.00 ave        8915 max        8523 min
Histogram: 1 2 0 1 0 1 0 0 0 1
Neighs:        60275.7 ave       70982 max       47112 min
Histogram: 2 0 0 0 0 1 0 1 1 1

Total # of neighbors = 361654
Ave neighs/atom = 58.256121
Ave special neighs/atom = 1.9793814
Neighbor list builds = 320
Dangerous builds = 0

if "${myDensity} > 1.0" then "jump SELF break"

next a
jump SELF loop
variable a loop 1000
change_box all x scale 0.95 y scale 0.95 z scale 0.95 remap
Changing box ...
  orthogonal box = (537.19563 533.89013 533.89013) to (662.80437 666.10987 666.10987)
  orthogonal box = (537.19563 537.19563 533.89013) to (662.80437 662.80437 666.10987)
  orthogonal box = (537.19563 537.19563 537.19563) to (662.80437 662.80437 662.80437)
run 8000
Per MPI rank memory allocation (min/avg/max) = 11.89 | 11.92 | 11.95 Mbytes
Step PotEng Temp Press KinEng Lx Ly Lz Pzz S/CPU Density 
 1350001     1765.842      341.559    1369.2158    6319.4863    125.60875    125.60875    125.60875    1357.9253            0   0.58367716 
 1358001   -734.65877    343.63922   -4.2436106    6357.9744    125.60875    125.60875    125.60875   -31.568457    490.65827   0.58367716 
Loop time of 16.3063 on 6 procs for 8000 steps with 6208 atoms

Performance: 423.885 ns/day, 0.057 hours/ns, 490.608 timesteps/s
96.0% CPU use with 6 MPI tasks x no OpenMP threads

MPI task timing breakdown:
Section |  min time  |  avg time  |  max time  |%varavg| %total
---------------------------------------------------------------
Pair    | 8.2904     | 10.465     | 12.19      |  41.6 | 64.17
Bond    | 0.080838   | 0.095165   | 0.10253    |   2.3 |  0.58
Neigh   | 1.4795     | 1.4804     | 1.4815     |   0.1 |  9.08
Comm    | 1.8371     | 3.5794     | 5.7747     |  72.3 | 21.95
Output  | 4.1008e-05 | 0.00032858 | 0.001725   |   0.0 |  0.00
Modify  | 0.38843    | 0.45411    | 0.49913    |   5.2 |  2.78
Other   |            | 0.2323     |            |       |  1.42

Nlocal:        1034.67 ave        1137 max         900 min
Histogram: 1 0 1 0 0 1 0 1 1 1
Nghost:        9514.83 ave        9801 max        9275 min
Histogram: 2 1 0 0 0 0 0 2 0 1
Neighs:        67929.3 ave       81433 max       53513 min
Histogram: 1 1 0 0 0 1 1 1 0 1

Total # of neighbors = 407576
Ave neighs/atom = 65.653351
Ave special neighs/atom = 1.9793814
Neighbor list builds = 330
Dangerous builds = 0

if "${myDensity} > 1.0" then "jump SELF break"

next a
jump SELF loop
variable a loop 1000
change_box all x scale 0.95 y scale 0.95 z scale 0.95 remap
Changing box ...
  orthogonal box = (540.33585 537.19563 537.19563) to (659.66415 662.80437 662.80437)
  orthogonal box = (540.33585 540.33585 537.19563) to (659.66415 659.66415 662.80437)
  orthogonal box = (540.33585 540.33585 540.33585) to (659.66415 659.66415 659.66415)
run 8000
Per MPI rank memory allocation (min/avg/max) = 11.90 | 11.93 | 11.96 Mbytes
Step PotEng Temp Press KinEng Lx Ly Lz Pzz S/CPU Density 
 1358001    1558.8448    343.63922    1589.2856    6357.9744    119.32831    119.32831    119.32831    1563.6295            0   0.68077231 
 1366001   -1175.4054    338.10982    38.315781    6255.6701    119.32831    119.32831    119.32831    51.808214    443.58236   0.68077231 
Loop time of 18.038 on 6 procs for 8000 steps with 6208 atoms

Performance: 383.192 ns/day, 0.063 hours/ns, 443.509 timesteps/s
96.1% CPU use with 6 MPI tasks x no OpenMP threads

MPI task timing breakdown:
Section |  min time  |  avg time  |  max time  |%varavg| %total
---------------------------------------------------------------
Pair    | 10.397     | 12.029     | 13.398     |  33.5 | 66.68
Bond    | 0.086251   | 0.095957   | 0.10157    |   1.7 |  0.53
Neigh   | 1.6093     | 1.612      | 1.6145     |   0.1 |  8.94
Comm    | 2.156      | 3.5962     | 5.2604     |  62.3 | 19.94
Output  | 5.0783e-05 | 0.00055118 | 0.0030348  |   0.0 |  0.00
Modify  | 0.41204    | 0.45424    | 0.48276    |   3.8 |  2.52
Other   |            | 0.2505     |            |       |  1.39

Nlocal:        1034.67 ave        1087 max         951 min
Histogram: 1 0 1 0 0 0 0 1 1 2
Nghost:        10340.7 ave       10560 max       10167 min
Histogram: 3 0 0 0 0 0 1 0 1 1
Neighs:        77948.3 ave       83971 max       67927 min
Histogram: 1 1 0 0 0 0 1 0 0 3

Total # of neighbors = 467690
Ave neighs/atom = 75.336662
Ave special neighs/atom = 1.9793814
Neighbor list builds = 320
Dangerous builds = 0

if "${myDensity} > 1.0" then "jump SELF break"

next a
jump SELF loop
variable a loop 1000
change_box all x scale 0.95 y scale 0.95 z scale 0.95 remap
Changing box ...
  orthogonal box = (543.31905 540.33585 540.33585) to (656.68095 659.66415 659.66415)
  orthogonal box = (543.31905 543.31905 540.33585) to (656.68095 656.68095 659.66415)
  orthogonal box = (543.31905 543.31905 543.31905) to (656.68095 656.68095 656.68095)
run 8000
Per MPI rank memory allocation (min/avg/max) = 11.91 | 12.00 | 12.34 Mbytes
Step PotEng Temp Press KinEng Lx Ly Lz Pzz S/CPU Density 
 1366001    1379.8611    338.10982    1975.6778    6255.6701    113.36189    113.36189    113.36189    2074.8893            0   0.79401931 
 1374001    -1553.813    340.57359    39.421921    6301.2543    113.36189    113.36189    113.36189    36.422106    404.57389   0.79401931 
Loop time of 19.7755 on 6 procs for 8000 steps with 6208 atoms

Performance: 349.524 ns/day, 0.069 hours/ns, 404.541 timesteps/s
95.9% CPU use with 6 MPI tasks x no OpenMP threads

MPI task timing breakdown:
Section |  min time  |  avg time  |  max time  |%varavg| %total
---------------------------------------------------------------
Pair    | 12.733     | 14.037     | 14.874     |  18.1 | 70.98
Bond    | 0.096542   | 0.10193    | 0.10458    |   0.8 |  0.52
Neigh   | 1.7993     | 1.8006     | 1.8017     |   0.1 |  9.10
Comm    | 2.2896     | 3.1165     | 4.4058     |  38.6 | 15.76
Output  | 4.3154e-05 | 0.00031006 | 0.0016251  |   0.0 |  0.00
Modify  | 0.42425    | 0.45574    | 0.47429    |   2.3 |  2.30
Other   |            | 0.2635     |            |       |  1.33

Nlocal:        1034.67 ave        1069 max        1008 min
Histogram: 1 1 0 1 1 0 1 0 0 1
Nghost:        11340.5 ave       11368 max       11312 min
Histogram: 2 0 0 1 0 0 0 0 2 1
Neighs:        90239.0 ave       96865 max       86240 min
Histogram: 2 1 0 1 0 0 1 0 0 1

Total # of neighbors = 541434
Ave neighs/atom = 87.215528
Ave special neighs/atom = 1.9793814
Neighbor list builds = 320
Dangerous builds = 0

if "${myDensity} > 1.0" then "jump SELF break"

next a
jump SELF loop
variable a loop 1000
change_box all x scale 0.95 y scale 0.95 z scale 0.95 remap
Changing box ...
  orthogonal box = (546.15310 543.31905 543.31905) to (653.84690 656.68095 656.68095)
  orthogonal box = (546.15310 546.15310 543.31905) to (653.84690 653.84690 656.68095)
  orthogonal box = (546.15310 546.15310 546.15310) to (653.84690 653.84690 653.84690)
run 8000
Per MPI rank memory allocation (min/avg/max) = 12.31 | 12.33 | 12.37 Mbytes
Step PotEng Temp Press KinEng Lx Ly Lz Pzz S/CPU Density 
 1374001    1069.0044    340.57359    2370.2609    6301.2543     107.6938     107.6938     107.6938    2369.2173            0   0.92610504 
 1382001   -2214.7036    341.32109    162.67543    6315.0847     107.6938     107.6938     107.6938      181.738    360.83569   0.92610504 
Loop time of 22.172 on 6 procs for 8000 steps with 6208 atoms

Performance: 311.745 ns/day, 0.077 hours/ns, 360.816 timesteps/s
96.3% CPU use with 6 MPI tasks x no OpenMP threads

MPI task timing breakdown:
Section |  min time  |  avg time  |  max time  |%varavg| %total
---------------------------------------------------------------
Pair    | 15.682     | 16.282     | 17.124     |  12.1 | 73.44
Bond    | 0.10035    | 0.10304    | 0.10517    |   0.5 |  0.46
Neigh   | 1.8469     | 1.8488     | 1.8501     |   0.1 |  8.34
Comm    | 2.3749     | 3.2044     | 3.7777     |  27.3 | 14.45
Output  | 4.5061e-05 | 0.00025427 | 0.0012798  |   0.0 |  0.00
Modify  | 0.44029    | 0.45584    | 0.47283    |   1.7 |  2.06
Other   |            | 0.2773     |            |       |  1.25

Nlocal:        1034.67 ave        1063 max        1014 min
Histogram: 2 0 1 0 0 1 0 1 0 1
Nghost:        12490.2 ave       12517 max       12463 min
Histogram: 1 1 0 0 1 1 0 0 0 2
Neighs:        105211.0 ave      109847 max      100985 min
Histogram: 1 0 2 0 0 0 1 1 0 1

Total # of neighbors = 631264
Ave neighs/atom = 101.68557
Ave special neighs/atom = 1.9793814
Neighbor list builds = 323
Dangerous builds = 0

if "${myDensity} > 1.0" then "jump SELF break"

next a
jump SELF loop
variable a loop 1000
change_box all x scale 0.95 y scale 0.95 z scale 0.95 remap
Changing box ...
  orthogonal box = (548.84545 546.15310 546.15310) to (651.15455 653.84690 653.84690)
  orthogonal box = (548.84545 548.84545 546.15310) to (651.15455 651.15455 653.84690)
  orthogonal box = (548.84545 548.84545 548.84545) to (651.15455 651.15455 651.15455)
run 8000
Per MPI rank memory allocation (min/avg/max) = 12.32 | 12.35 | 12.38 Mbytes
Step PotEng Temp Press KinEng Lx Ly Lz Pzz S/CPU Density 
 1382001     910.8788    341.32109      3067.99    6315.0847    102.30911    102.30911    102.30911    3107.5425            0    1.0801633 
 1390001   -2858.3516    350.69728     464.1899    6488.5617    102.30911    102.30911    102.30911    449.53021    313.13723    1.0801633 
Loop time of 25.5508 on 6 procs for 8000 steps with 6208 atoms

Performance: 270.520 ns/day, 0.089 hours/ns, 313.102 timesteps/s
96.5% CPU use with 6 MPI tasks x no OpenMP threads

MPI task timing breakdown:
Section |  min time  |  avg time  |  max time  |%varavg| %total
---------------------------------------------------------------
Pair    | 18.035     | 18.988     | 19.923     |  13.4 | 74.31
Bond    | 0.093531   | 0.098778   | 0.10716    |   1.6 |  0.39
Neigh   | 2.1966     | 2.1992     | 2.2014     |   0.1 |  8.61
Comm    | 2.6001     | 3.5157     | 4.4855     |  31.4 | 13.76
Output  | 4.9114e-05 | 0.00053191 | 0.002913   |   0.0 |  0.00
Modify  | 0.44247    | 0.45575    | 0.4671     |   1.4 |  1.78
Other   |            | 0.2928     |            |       |  1.15

Nlocal:        1034.67 ave        1049 max        1012 min
Histogram: 1 0 0 0 0 2 1 0 1 1
Nghost:        13785.2 ave       13802 max       13756 min
Histogram: 1 0 0 0 1 0 1 0 2 1
Neighs:        122885.0 ave      126247 max      120473 min
Histogram: 1 1 1 1 0 0 0 0 1 1

Total # of neighbors = 737308
Ave neighs/atom = 118.76740
Ave special neighs/atom = 1.9793814
Neighbor list builds = 324
Dangerous builds = 0

if "${myDensity} > 1.0" then "jump SELF break"
jump SELF break

####Replicate to form slab

replicate 1 1 7
Replicating atoms ...
  orthogonal box = (548.84545 548.84545 548.84545) to (651.15455 651.15455 1265.0092)
  1 by 1 by 6 MPI processor grid
  43456 atoms
  43008 bonds
Finding 1-2 1-3 1-4 neighbors ...
  special bond factors lj:    0        1        1       
  special bond factors coul:  0        1        1       
     2 = max # of 1-2 neighbors
     6 = max # of special neighbors
  special bonds CPU = 0.001 seconds
  replicate CPU = 0.004 seconds

run 1
Per MPI rank memory allocation (min/avg/max) = 26.63 | 26.66 | 26.69 Mbytes
Step PotEng Temp Press KinEng Lx Ly Lz Pzz S/CPU Density 
 1390001   -20008.461    350.64886     464.1899    45419.932    102.30911    102.30911    716.16376    449.53021            0    1.0801633 
 1390002    -20005.92    350.51351    463.67563      45402.4    102.30911    102.30911    716.16376    450.30847    46.181077    1.0801633 
Loop time of 0.0216905 on 6 procs for 1 steps with 43456 atoms

Performance: 39.833 ns/day, 0.603 hours/ns, 46.103 timesteps/s
99.7% CPU use with 6 MPI tasks x no OpenMP threads

MPI task timing breakdown:
Section |  min time  |  avg time  |  max time  |%varavg| %total
---------------------------------------------------------------
Pair    | 0.019606   | 0.020075   | 0.020541   |   0.3 | 92.55
Bond    | 0.00015497 | 0.00015895 | 0.00016689 |   0.0 |  0.73
Neigh   | 0          | 0          | 0          |   0.0 |  0.00
Comm    | 0.00039721 | 0.00084794 | 0.0013282  |   0.0 |  3.91
Output  | 7.7963e-05 | 0.00010765 | 0.00016999 |   0.0 |  0.50
Modify  | 0.00037789 | 0.00039728 | 0.00041604 |   0.0 |  1.83
Other   |            | 0.0001038  |            |       |  0.48

Nlocal:        7242.67 ave        7253 max        7228 min
Histogram: 1 0 0 0 1 0 2 0 1 1
Nghost:        29383.3 ave       29414 max       29343 min
Histogram: 1 0 0 1 0 1 1 0 1 1
Neighs:        860193.0 ave      866766 max      855035 min
Histogram: 2 1 0 0 0 0 1 0 1 1

Total # of neighbors = 5161156
Ave neighs/atom = 118.76740
Ave special neighs/atom = 1.9793814
Neighbor list builds = 0
Dangerous builds = 0

###Delete replicated atoms

group under molecule < 129
12416 atoms in group under
group over molecule  > 192
24832 atoms in group over
group replica union under over
37248 atoms in group replica
delete_atoms group replica
WARNING: Ignoring 'compress yes' for molecular system (../delete_atoms.cpp:125)
Deleted 37248 atoms, new total = 6208

###Run simulation

fix           fixcentro all recenter INIT INIT INIT
fix           fxbal  all balance 1000 1.05 rcb

compute densidad all chunk/atom bin/1d z lower 0.01 units reduced
fix 3 all ave/chunk 1000 70 100000 densidad density/mass file den-$d-$T.profile
fix 3 all ave/chunk 1000 70 100000 densidad density/mass file den-TIA_WT-$T.profile
fix 3 all ave/chunk 1000 70 100000 densidad density/mass file den-TIA_WT-335.profile

compute  rad all gyration
variable t equal step
variable r equal c_rad
fix      radfile all print 10000 "$t $r" file rad-$d-$T.dat screen no
fix      radfile all print 10000 "$t $r" file rad-TIA_WT-$T.dat screen no
fix      radfile all print 10000 "$t $r" file rad-TIA_WT-335.dat screen no

compute	msd all msd com yes
fix	msd all ave/time 1 1 10000 c_msd[4] file mds-$d-$T.dat
fix	msd all ave/time 1 1 10000 c_msd[4] file mds-TIA_WT-$T.dat
fix	msd all ave/time 1 1 10000 c_msd[4] file mds-TIA_WT-335.dat

run 10000000
Per MPI rank memory allocation (min/avg/max) = 28.88 | 29.17 | 30.15 Mbytes
Step PotEng Temp Press KinEng Lx Ly Lz Pzz S/CPU Density 
 1390002   -1996.4948    350.47809    62.733404    6484.5064    102.30911    102.30911    716.16376    60.484219            0   0.15430905 
 2000000   -664.38039    336.94039    3.2547036    6234.0334    102.30911    102.30911    716.16376    1.9351147    554.60419   0.15430905 
 3000000   -812.81757    336.23163  -0.35291356      6220.92    102.30911    102.30911    716.16376    2.2636414    568.01001   0.15430905 
 4000000     -764.118     331.1921    2.9410166    6127.6792    102.30911    102.30911    716.16376     1.537062    574.45918   0.15430905 
 5000000   -753.53092    331.64658    8.0343403    6136.0879    102.30911    102.30911    716.16376    8.2755928    553.54004   0.15430905 
 6000000   -690.97396    339.46665   -1.5205105    6280.7739    102.30911    102.30911    716.16376   -9.9695149    569.59141   0.15430905 
 7000000   -732.65639    338.34223  -0.65703015    6259.9701    102.30911    102.30911    716.16376  -0.17051786     561.8255   0.15430905 
 8000000   -692.62889    339.23185   -1.0594584    6276.4296    102.30911    102.30911    716.16376    4.7620685    563.89916   0.15430905 
 9000000    -858.9966    337.60309   0.86326169    6246.2946    102.30911    102.30911    716.16376    2.7856181    568.51448   0.15430905 
10000000   -733.96826    330.88832    2.1924335    6122.0586    102.30911    102.30911    716.16376    2.2608864      580.065   0.15430905 
11000000   -923.47905    338.98936    -2.315659    6271.9432    102.30911    102.30911    716.16376    0.2122175    578.28544   0.15430905 
11390002   -566.62464    339.21428    5.1105952    6276.1045    102.30911    102.30911    716.16376    3.7735945    593.28836   0.15430905 
Loop time of 17586.2 on 6 procs for 10000000 steps with 6208 atoms

Performance: 491.295 ns/day, 0.049 hours/ns, 568.628 timesteps/s
99.4% CPU use with 6 MPI tasks x no OpenMP threads

MPI task timing breakdown:
Section |  min time  |  avg time  |  max time  |%varavg| %total
---------------------------------------------------------------
Pair    | 8808.7     | 11638      | 12675      |1221.0 | 66.18
Bond    | 113.19     | 115.56     | 117.61     |  14.5 |  0.66
Neigh   | 1510.4     | 1522.8     | 1539.5     |  22.0 |  8.66
Comm    | 2348.7     | 3270.7     | 5742.5     |2027.8 | 18.60
Output  | 0.26989    | 0.31819    | 0.49642    |  14.2 |  0.00
Modify  | 768.41     | 900.58     | 1239.8     | 556.9 |  5.12
Other   |            | 138.1      |            |       |  0.79

Nlocal:        1034.67 ave        1052 max         994 min
Histogram: 1 0 0 0 0 1 0 1 0 3
Nghost:        6878.17 ave        8115 max        4832 min
Histogram: 1 0 1 0 0 0 0 1 2 1
Neighs:        56092.7 ave       65303 max       42637 min
Histogram: 1 0 1 0 0 0 2 0 0 2

Total # of neighbors = 336556
Ave neighs/atom = 54.213273
Ave special neighs/atom = 1.9793814
Neighbor list builds = 369163
Dangerous builds = 0

write_data data$d-$T.out
write_data dataTIA_WT-$T.out
write_data dataTIA_WT-335.out
System init for write_data ...

shell cd ..

clear

next x

jump SELF loopT
variable x loop 5

variable T equal 315+5*$x
variable T equal 315+5*5

units       real
dimension   3
boundary    p p p
atom_style  full

shell cd $d/
shell cd TIA_WT/

read_data $d.config
read_data TIA_WT.config
Reading data file ...
  orthogonal box = (0.0000000 0.0000000 0.0000000) to (300.00000 300.00000 300.00000)
  1 by 2 by 3 MPI processor grid
  reading atoms ...
  97 atoms
  scanning bonds ...
  1 = max bonds/atom
  reading bonds ...
  96 bonds
Finding 1-2 1-3 1-4 neighbors ...
  special bond factors lj:    0        0        0       
  special bond factors coul:  0        0        0       
     2 = max # of 1-2 neighbors
     2 = max # of 1-3 neighbors
     4 = max # of 1-4 neighbors
     6 = max # of special neighbors
  special bonds CPU = 0.000 seconds
  read_data CPU = 0.021 seconds

log log.$T
log log.340
