
bond_style  harmonic
dielectric  80.0

set type 25 charge 0.75
Setting atom values ...
  0 settings made for charge
set type 27 charge -0.75
Setting atom values ...
  0 settings made for charge
set type 28 charge -0.75
Setting atom values ...
  0 settings made for charge
set type 36 charge 0.375
Setting atom values ...
  0 settings made for charge
set type 23 charge 0.75
Setting atom values ...
  0 settings made for charge

set type 5 charge 0.75
Setting atom values ...
  1 settings made for charge
set type 7 charge -0.75
Setting atom values ...
  0 settings made for charge
set type 3  charge 0.75
Setting atom values ...
  0 settings made for charge
set type 16 charge 0.375
Setting atom values ...
  0 settings made for charge
set type 8  charge -0.75
Setting atom values ...
  1 settings made for charge

bond_coeff          1     9.600     3.81
#bond_coeff          2     9.600     5.00

pair_style  hybrid/overlay wf/cut 25.0 coul/debye 0.126 0.0

pair_coeff 30 30 wf/cut 0.004751 6.45565 1 3 19.367
pair_coeff 1 1 wf/cut 0.039564 6.467950871367303 1 2 19.403852614101908
pair_coeff 1 2 wf/cut 0.068017 5.576178403526399 1 2 16.728535210579196
pair_coeff 1 3 wf/cut 0.032686 6.5677835361737795 1 2 19.70335060852134
pair_coeff 1 4 wf/cut 0.035161 6.178228033595178 1 2 18.534684100785533
pair_coeff 1 5 wf/cut 0.171515 6.643964892255349 1 2 19.93189467676605
pair_coeff 1 6 wf/cut 0.044522 5.868502140125925 1 2 17.605506420377775
pair_coeff 1 7 wf/cut 0.073172 6.14145960937047 1 2 18.424378828111408
pair_coeff 1 8 wf/cut 0.077577 6.318176525841784 1 2 18.95452957752535
pair_coeff 1 9 wf/cut 0.229375 6.590037435016079 1 2 19.770112305048237
pair_coeff 1 10 wf/cut 0.022571 6.320571545407576 1 2 18.96171463622273
pair_coeff 1 11 wf/cut 0.025281 6.483443734640188 1 2 19.450331203920562
pair_coeff 1 12 wf/cut 0.120006 6.36518785664648 1 2 19.09556356993944
pair_coeff 1 13 wf/cut 0.294931 6.755728450520449 1 2 20.267185351561345
pair_coeff 1 14 wf/cut 0.215603 6.538208522101147 1 2 19.61462556630344
pair_coeff 1 15 wf/cut 0.050582 5.938940625510648 1 2 17.816821876531947
pair_coeff 1 16 wf/cut 0.203491 6.392507281968151 1 2 19.177521845904455
pair_coeff 1 17 wf/cut 0.116706 6.188018494610175 1 2 18.564055483830522
pair_coeff 1 18 wf/cut 0.059120 6.1344640513130955 1 2 18.403392153939286
pair_coeff 1 19 wf/cut 0.054437 6.094294827619396 1 2 18.282884482858186
pair_coeff 1 20 wf/cut 0.019979 6.496393035701747 1 2 19.48917910710524
pair_coeff 1 21 wf/cut 0.033511 6.472967463905089 1 2 19.418902391715267
pair_coeff 1 22 wf/cut 0.053464 5.579884038976499 1 2 16.7396521169295
pair_coeff 1 23 wf/cut 0.028840 6.572908139010548 1 2 19.718724417031645
pair_coeff 1 24 wf/cut 0.030487 6.183085528083141 1 2 18.549256584249424
pair_coeff 1 25 wf/cut 0.126057 6.646517494086263 1 2 19.93955248225879
pair_coeff 1 26 wf/cut 0.037087 5.873266644604083 1 2 17.61979993381225
pair_coeff 1 27 wf/cut 0.057192 6.145621669676131 1 2 18.43686500902839
pair_coeff 1 28 wf/cut 0.060220 6.322430858089529 1 2 18.967292574268587
pair_coeff 1 29 wf/cut 0.166559 6.592040039094211 1 2 19.776120117282634
pair_coeff 1 30 wf/cut 0.022157 6.322886509244067 1 2 18.9686595277322
pair_coeff 1 31 wf/cut 0.023649 6.486360198534797 1 2 19.45908059560439
pair_coeff 1 32 wf/cut 0.089698 6.368425539955892 1 2 19.105276619867674
pair_coeff 1 33 wf/cut 0.212282 6.7573688868401405 1 2 20.27210666052042
pair_coeff 1 34 wf/cut 0.156918 6.5402914181442595 1 2 19.620874254432778
pair_coeff 1 35 wf/cut 0.041217 5.943583554201671 1 2 17.830750662605013
pair_coeff 1 36 wf/cut 0.148384 6.394666170151445 1 2 19.183998510454334
pair_coeff 1 37 wf/cut 0.087498 6.191219964195186 1 2 18.57365989258556
pair_coeff 1 38 wf/cut 0.047275 6.139108925912469 1 2 18.417326777737408
pair_coeff 1 39 wf/cut 0.043970 6.098946985727069 1 2 18.296840957181207
pair_coeff 1 40 wf/cut 0.019979 6.496393035701747 1 2 19.48917910710524
pair_coeff 2 2 wf/cut 0.096470 4.695110240398406 1 2 14.085330721195216
pair_coeff 2 3 wf/cut 0.061139 5.671338290828199 1 2 17.014014872484598
pair_coeff 2 4 wf/cut 0.063614 5.284424971479424 1 2 15.85327491443827
pair_coeff 2 5 wf/cut 0.199968 5.766386193227936 1 2 17.299158579683805
pair_coeff 2 6 wf/cut 0.072975 4.980134552672144 1 2 14.940403658016432
pair_coeff 2 7 wf/cut 0.101625 5.2592548053112145 1 2 15.777764415933643
pair_coeff 2 8 wf/cut 0.106030 5.436374588857539 1 2 16.30912376657262
pair_coeff 2 9 wf/cut 0.257828 5.7131654456309935 1 2 17.139496336892982
pair_coeff 2 10 wf/cut 0.051024 5.412393397897493 1 2 16.23718019369248
pair_coeff 2 11 wf/cut 0.053734 5.578930397816427 1 2 16.736791193449278
pair_coeff 2 12 wf/cut 0.148459 5.486299347261422 1 2 16.458898041784266
pair_coeff 2 13 wf/cut 0.323384 5.879238002082802 1 2 17.63771400624841
pair_coeff 2 14 wf/cut 0.244056 5.661218822883835 1 2 16.983656468651503
pair_coeff 2 15 wf/cut 0.079035 5.052524512175333 1 2 15.157573536526
pair_coeff 2 16 wf/cut 0.231944 5.515411637199979 1 2 16.54623491159994
pair_coeff 2 17 wf/cut 0.145159 5.3090163197417555 1 2 15.927048959225267
pair_coeff 2 18 wf/cut 0.087573 5.249990542761369 1 2 15.749971628284106
pair_coeff 2 19 wf/cut 0.082890 5.208722790322849 1 2 15.626168370968546
pair_coeff 2 20 wf/cut 0.048432 5.580329252471181 1 2 16.740987757413542
pair_coeff 2 21 wf/cut 0.061964 5.577215175821233 1 2 16.731645527463698
pair_coeff 2 22 wf/cut 0.081917 4.696396560631559 1 2 14.089189681894677
pair_coeff 2 23 wf/cut 0.057293 5.67211261999139 1 2 17.016337859974172
pair_coeff 2 24 wf/cut 0.058940 5.285212528563172 1 2 15.855637585689518
pair_coeff 2 25 wf/cut 0.154510 5.767769508320207 1 2 17.30330852496062
pair_coeff 2 26 wf/cut 0.065540 4.981125987510791 1 2 14.943377962532374
pair_coeff 2 27 wf/cut 0.085645 5.260651874488179 1 2 15.781955623464537
pair_coeff 2 28 wf/cut 0.088673 5.437809343618614 1 2 16.313428030855842
pair_coeff 2 29 wf/cut 0.195012 5.714358676536591 1 2 17.143076029609773
pair_coeff 2 30 wf/cut 0.050610 5.412530359493723 1 2 16.23759107848117
pair_coeff 2 31 wf/cut 0.052102 5.579325356579805 1 2 16.737976069739414
pair_coeff 2 32 wf/cut 0.118151 5.487774115196598 1 2 16.463322345589795
pair_coeff 2 33 wf/cut 0.240735 5.880303283956183 1 2 17.64090985186855
pair_coeff 2 34 wf/cut 0.185371 5.662447134978403 1 2 16.987341404935208
pair_coeff 2 35 wf/cut 0.069670 5.053695239348068 1 2 15.161085718044204
pair_coeff 2 36 wf/cut 0.176837 5.516638738971832 1 2 16.549916216915495
pair_coeff 2 37 wf/cut 0.115951 5.310437234694913 1 2 15.931311704084738
pair_coeff 2 38 wf/cut 0.075728 5.251325825579545 1 2 15.753977476738633
pair_coeff 2 39 wf/cut 0.072423 5.20997288304294 1 2 15.629918649128818
pair_coeff 2 40 wf/cut 0.048432 5.580329252471181 1 2 16.740987757413542
pair_coeff 3 3 wf/cut 0.019117 6.671340524039856 1 2 20.014021572119567
pair_coeff 3 4 wf/cut 0.028283 6.279399881910995 1 2 18.838199645732985
pair_coeff 3 5 wf/cut 0.121938 6.73819193132635 1 2 20.21457579397905
pair_coeff 3 6 wf/cut 0.037644 5.966686347623176 1 2 17.90005904286953
pair_coeff 3 7 wf/cut 0.000493 6.236987380482699 1 2 18.710962141448096
pair_coeff 3 8 wf/cut 0.000526 6.413575163938182 1 2 19.240725491814544
pair_coeff 3 9 wf/cut 0.102701 6.684083406034673 1 2 20.052250218104017
pair_coeff 3 10 wf/cut 0.015693 6.433541011383533 1 2 19.3006230341506
pair_coeff 3 11 wf/cut 0.018403 6.592557574989555 1 2 19.777672724968664
pair_coeff 3 12 wf/cut 0.113128 6.4596938105680355 1 2 19.37908143170411
pair_coeff 3 13 wf/cut 0.104796 6.849685211660051 1 2 20.549055634980153
pair_coeff 3 14 wf/cut 0.115276 6.632280360446061 1 2 19.896841081338184
pair_coeff 3 15 wf/cut 0.043704 6.036179732070119 1 2 18.10853919621036
pair_coeff 3 16 wf/cut 0.087370 6.4866030031823305 1 2 19.45980900954699
pair_coeff 3 17 wf/cut 0.109828 6.2825460057664415 1 2 18.847638017299325
pair_coeff 3 18 wf/cut 0.052242 6.2310615597122725 1 2 18.693184679136817
pair_coeff 3 19 wf/cut 0.047559 6.191153675456269 1 2 18.573461026368804
pair_coeff 3 20 wf/cut 0.013101 6.617996254538358 1 2 19.853988763615074
pair_coeff 3 21 wf/cut 0.026633 6.575236990212751 1 2 19.725710970638254
pair_coeff 3 22 wf/cut 0.046586 5.67591070475063 1 2 17.02773211425189
pair_coeff 3 23 wf/cut 0.016267 6.6786690213492745 1 2 20.036007064047823
pair_coeff 3 24 wf/cut 0.023609 6.28697050091405 1 2 18.860911502742148
pair_coeff 3 25 wf/cut 0.088471 6.7410021187479785 1 2 20.223006356243935
pair_coeff 3 26 wf/cut 0.030209 5.973496417353158 1 2 17.920489252059475
pair_coeff 3 27 wf/cut 0.000375 6.242202340571064 1 2 18.726607021713193
pair_coeff 3 28 wf/cut 0.000395 6.41884518513886 1 2 19.25653555541658
pair_coeff 3 29 wf/cut 0.087295 6.686244113621416 1 2 20.058732340864246
pair_coeff 3 30 wf/cut 0.015279 6.438064853494475 1 2 19.314194560483426
pair_coeff 3 31 wf/cut 0.016771 6.597859600272992 1 2 19.793578800818977
pair_coeff 3 32 wf/cut 0.082820 6.463434808995108 1 2 19.390304426985324
pair_coeff 3 33 wf/cut 0.089077 6.851438991432198 1 2 20.554316974296594
pair_coeff 3 34 wf/cut 0.097985 6.634536462444846 1 2 19.903609387334537
pair_coeff 3 35 wf/cut 0.034339 6.042553594266142 1 2 18.127660782798426
pair_coeff 3 36 wf/cut 0.062880 6.488951472342971 1 2 19.466854417028912
pair_coeff 3 37 wf/cut 0.080620 6.286259565568102 1 2 18.858778696704306
pair_coeff 3 38 wf/cut 0.040397 6.23694969931501 1 2 18.71084909794503
pair_coeff 3 39 wf/cut 0.037092 6.197406382364393 1 2 18.59221914709318
pair_coeff 3 40 wf/cut 0.013101 6.617996254538358 1 2 19.853988763615074
pair_coeff 4 4 wf/cut 0.030758 5.8890615748048605 1 2 17.667184724414582
pair_coeff 4 5 wf/cut 0.167112 6.352015695367313 1 2 19.056047086101938
pair_coeff 4 6 wf/cut 0.040119 5.577947754246859 1 2 16.733843262740578
pair_coeff 4 7 wf/cut 0.068769 5.849866323299111 1 2 17.549598969897332
pair_coeff 4 8 wf/cut 0.073174 6.026541387517959 1 2 18.079624162553877
pair_coeff 4 9 wf/cut 0.224972 6.298063007043266 1 2 18.894189021129797
pair_coeff 4 10 wf/cut 0.018168 6.03696547344559 1 2 18.11089642033677
pair_coeff 4 11 wf/cut 0.020878 6.198088878491606 1 2 18.594266635474817
pair_coeff 4 12 wf/cut 0.115603 6.073287961608412 1 2 18.219863884825237
pair_coeff 4 13 wf/cut 0.290527 6.463775207339586 1 2 19.39132562201876
pair_coeff 4 14 wf/cut 0.211200 6.246251077325644 1 2 18.73875323197693
pair_coeff 4 15 wf/cut 0.046179 5.648007650359314 1 2 16.94402295107794
pair_coeff 4 16 wf/cut 0.199088 6.1005286446452045 1 2 18.301585933935613
pair_coeff 4 17 wf/cut 0.112303 5.896099182190375 1 2 17.688297546571125
pair_coeff 4 18 wf/cut 0.054717 5.84319611761197 1 2 17.52958835283591
pair_coeff 4 19 wf/cut 0.050034 5.803211551983609 1 2 17.40963465595083
pair_coeff 4 20 wf/cut 0.015576 6.214617146494642 1 2 18.643851439483925
pair_coeff 4 21 wf/cut 0.029108 6.184377266229273 1 2 18.55313179868782
pair_coeff 4 22 wf/cut 0.049061 5.288433024843104 1 2 15.865299074529311
pair_coeff 4 23 wf/cut 0.024437 6.285985931141882 1 2 18.857957793425648
pair_coeff 4 24 wf/cut 0.026084 5.895181038887271 1 2 17.685543116661812
pair_coeff 4 25 wf/cut 0.121654 6.3546176961456355 1 2 19.063853088436908
pair_coeff 4 26 wf/cut 0.032684 5.583620888610048 1 2 16.75086266583014
pair_coeff 4 27 wf/cut 0.052789 5.854435916763915 1 2 17.563307750291745
pair_coeff 4 28 wf/cut 0.055817 6.031184910048361 1 2 18.093554730145083
pair_coeff 4 29 wf/cut 0.162155 6.300073473520442 1 2 18.900220420561325
pair_coeff 4 30 wf/cut 0.017754 6.038590687548953 1 2 18.115772062646858
pair_coeff 4 31 wf/cut 0.019246 6.20213243224441 1 2 18.606397296733228
pair_coeff 4 32 wf/cut 0.085295 6.076667470375622 1 2 18.230002411126865
pair_coeff 4 33 wf/cut 0.207879 6.4653998696548625 1 2 19.396199608964587
pair_coeff 4 34 wf/cut 0.152515 6.248347277402027 1 2 18.74504183220608
pair_coeff 4 35 wf/cut 0.036814 5.653400669933968 1 2 16.960202009801904
pair_coeff 4 36 wf/cut 0.143981 6.1027057764377375 1 2 18.308117329313212
pair_coeff 4 37 wf/cut 0.083095 5.899444861363162 1 2 17.698334584089487
pair_coeff 4 38 wf/cut 0.042872 5.848454222246143 1 2 17.545362666738427
pair_coeff 4 39 wf/cut 0.039567 5.808550835350359 1 2 17.425652506051076
pair_coeff 4 40 wf/cut 0.015576 6.214617146494642 1 2 18.643851439483925
pair_coeff 5 5 wf/cut 0.089916 6.839051042416954 1 2 20.51715312725086
pair_coeff 5 6 wf/cut 0.176473 6.049093128275473 1 2 18.14727938482642
pair_coeff 5 7 wf/cut 0.001522 6.329860382208001 1 2 18.989581146624005
pair_coeff 5 8 wf/cut 0.001554 6.507087894628845 1 2 19.521263683886534
pair_coeff 5 9 wf/cut 0.607820 6.786238537205683 1 2 20.358715611617047
pair_coeff 5 10 wf/cut 0.154522 6.477800731622431 1 2 19.433402194867295
pair_coeff 5 11 wf/cut 0.157232 6.644606745714045 1 2 19.933820237142136
pair_coeff 5 12 wf/cut 0.251957 6.5582801074116395 1 2 19.674840322234918
pair_coeff 5 13 wf/cut 0.691657 6.952550947859904 1 2 20.85765284357971
pair_coeff 5 14 wf/cut 0.544942 6.734244851368496 1 2 20.20273455410549
pair_coeff 5 15 wf/cut 0.182533 6.121907195991114 1 2 18.365721587973344
pair_coeff 5 16 wf/cut 0.124237 6.588371399225676 1 2 19.76511419767703
pair_coeff 5 17 wf/cut 0.248657 6.381027696653046 1 2 19.143083089959138
pair_coeff 5 18 wf/cut 0.191071 6.319850876308843 1 2 18.95955262892653
pair_coeff 5 19 wf/cut 0.186388 6.2782756347766915 1 2 18.834826904330075
pair_coeff 5 20 wf/cut 0.151930 6.644914452592528 1 2 19.934743357777585
pair_coeff 5 21 wf/cut 0.165462 6.6442230427261695 1 2 19.93266912817851
pair_coeff 5 22 wf/cut 0.185415 5.7668587075646895 1 2 17.300576122694068
pair_coeff 5 23 wf/cut 0.160791 6.738370816695987 1 2 20.21511245008796
pair_coeff 5 24 wf/cut 0.162438 6.352227758045304 1 2 19.056683274135914
pair_coeff 5 25 wf/cut 0.076528 6.839775073180529 1 2 20.519325219541585
pair_coeff 5 26 wf/cut 0.169038 6.0493803544908396 1 2 18.14814106347252
pair_coeff 5 27 wf/cut 0.001403 6.330338025744615 1 2 18.991014077233842
pair_coeff 5 28 wf/cut 0.001424 6.507609785991295 1 2 19.522829357973883
pair_coeff 5 29 wf/cut 0.516647 6.786966179847217 1 2 20.36089853954165
pair_coeff 5 30 wf/cut 0.154108 6.477855546012645 1 2 19.433566638037934
pair_coeff 5 31 wf/cut 0.155600 6.644688317632491 1 2 19.934064952897472
pair_coeff 5 32 wf/cut 0.221649 6.558922216808411 1 2 19.676766650425233
pair_coeff 5 33 wf/cut 0.587908 6.953270762564632 1 2 20.859812287693895
pair_coeff 5 34 wf/cut 0.463200 6.734965561624807 1 2 20.20489668487442
pair_coeff 5 35 wf/cut 0.173168 6.122239691611766 1 2 18.366719074835295
pair_coeff 5 36 wf/cut 0.103828 6.589083179632521 1 2 19.767249538897563
pair_coeff 5 37 wf/cut 0.219449 6.381655047319296 1 2 19.14496514195789
pair_coeff 5 38 wf/cut 0.179226 6.320242196579514 1 2 18.96072658973854
pair_coeff 5 39 wf/cut 0.175921 6.27864243896636 1 2 18.83592731689908
pair_coeff 5 40 wf/cut 0.151930 6.644914452592528 1 2 19.934743357777585
pair_coeff 6 6 wf/cut 0.049480 5.270073550243385 1 2 15.810220650730155
pair_coeff 6 7 wf/cut 0.078130 5.545103888084069 1 2 16.635311664252207
pair_coeff 6 8 wf/cut 0.082535 5.721983178129665 1 2 17.165949534388993
pair_coeff 6 9 wf/cut 0.234333 5.995374866482686 1 2 17.986124599448058
pair_coeff 6 10 wf/cut 0.027529 5.714672842433839 1 2 17.14401852730152
pair_coeff 6 11 wf/cut 0.030239 5.879183169613761 1 2 17.637549508841282
pair_coeff 6 12 wf/cut 0.124964 5.769878425481944 1 2 17.30963527644583
pair_coeff 6 13 wf/cut 0.299889 6.1612197345718664 1 2 18.4836592037156
pair_coeff 6 14 wf/cut 0.220561 5.943524169558512 1 2 17.830572508675537
pair_coeff 6 15 wf/cut 0.055540 5.341186580911172 1 2 16.023559742733518
pair_coeff 6 16 wf/cut 0.208449 5.797765867232053 1 2 17.393297601696162
pair_coeff 6 17 wf/cut 0.121665 5.592676667454632 1 2 16.778030002363895
pair_coeff 6 18 wf/cut 0.064078 5.537383848868321 1 2 16.612151546604963
pair_coeff 6 19 wf/cut 0.059395 5.496867679432823 1 2 16.490603038298467
pair_coeff 6 20 wf/cut 0.024937 5.887264113119765 1 2 17.661792339359295
pair_coeff 6 21 wf/cut 0.038469 5.872091702440819 1 2 17.616275107322455
pair_coeff 6 22 wf/cut 0.058422 4.983057318967985 1 2 14.949171956903955
pair_coeff 6 23 wf/cut 0.033798 5.970212624670237 1 2 17.91063787401071
pair_coeff 6 24 wf/cut 0.035445 5.581322386503443 1 2 16.743967159510326
pair_coeff 6 25 wf/cut 0.131015 6.051283655448215 1 2 18.153850966344642
pair_coeff 6 26 wf/cut 0.042046 5.273529178305013 1 2 15.82058753491504
pair_coeff 6 27 wf/cut 0.062150 5.548382201124551 1 2 16.645146603373654
pair_coeff 6 28 wf/cut 0.065178 5.725365872076537 1 2 17.17609761622961
pair_coeff 6 29 wf/cut 0.171517 5.997120040197383 1 2 17.991360120592148
pair_coeff 6 30 wf/cut 0.027116 5.716115591130418 1 2 17.148346773391253
pair_coeff 6 31 wf/cut 0.028607 5.881066148485684 1 2 17.643198445457053
pair_coeff 6 32 wf/cut 0.094656 5.77257425641905 1 2 17.317722769257152
pair_coeff 6 33 wf/cut 0.217240 6.16266774871136 1 2 18.48800324613408
pair_coeff 6 34 wf/cut 0.161876 5.945332519051 1 2 17.835997557153
pair_coeff 6 35 wf/cut 0.046175 5.344636755005952 1 2 16.03391026501786
pair_coeff 6 36 wf/cut 0.153342 5.799630893236802 1 2 17.398892679710407
pair_coeff 6 37 wf/cut 0.092457 5.595329366190724 1 2 16.785988098572172
pair_coeff 6 38 wf/cut 0.052233 5.540935423926066 1 2 16.6228062717782
pair_coeff 6 39 wf/cut 0.048928 5.50037559161048 1 2 16.50112677483144
pair_coeff 6 40 wf/cut 0.024937 5.887264113119765 1 2 17.661792339359295
pair_coeff 7 7 wf/cut 0.079096 5.823521721060312 1 2 17.470565163180936
pair_coeff 7 8 wf/cut 0.082359 6.000582237524121 1 2 18.001746712572363
pair_coeff 7 9 wf/cut 0.262983 6.276473791430636 1 2 18.829421374291908
pair_coeff 7 10 wf/cut 0.056178 5.978735433494051 1 2 17.93620630048215
pair_coeff 7 11 wf/cut 0.058888 6.145089275635634 1 2 18.4352678269069
pair_coeff 7 12 wf/cut 0.153614 6.0500403862929435 1 2 18.150121158878832
pair_coeff 7 13 wf/cut 0.328538 6.4424403069543335 1 2 19.327320920863002
pair_coeff 7 14 wf/cut 0.249211 6.224557346027278 1 2 18.673672038081833
pair_coeff 7 15 wf/cut 0.084189 5.617298771179795 1 2 16.851896313539385
pair_coeff 7 16 wf/cut 0.001758 6.078759471752929 1 2 18.236278415258788
pair_coeff 7 17 wf/cut 0.150314 5.872796196825872 1 2 17.618388590477615
pair_coeff 7 18 wf/cut 0.092728 5.81454574012806 1 2 17.44363722038418
pair_coeff 7 19 wf/cut 0.088045 5.773404302618334 1 2 17.320212907855
pair_coeff 7 20 wf/cut 0.053587 6.146988238119009 1 2 18.44096471435703
pair_coeff 7 21 wf/cut 0.067118 6.142810853550669 1 2 18.428432560652006
pair_coeff 7 22 wf/cut 0.087071 5.260822534908925 1 2 15.782467604726776
pair_coeff 7 23 wf/cut 0.062448 6.238009317192061 1 2 18.714027951576185
pair_coeff 7 24 wf/cut 0.064094 5.850906179325341 1 2 17.552718537976023
pair_coeff 7 25 wf/cut 0.159665 6.331479448731908 1 2 18.994438346195725
pair_coeff 7 26 wf/cut 0.070695 5.546505225276659 1 2 16.639515675829976
pair_coeff 7 27 wf/cut 0.067258 5.825264832984326 1 2 17.47579449895298
pair_coeff 7 28 wf/cut 0.069297 6.002427424339147 1 2 18.00728227301744
pair_coeff 7 29 wf/cut 0.200166 6.277866750279897 1 2 18.83360025083969
pair_coeff 7 30 wf/cut 0.055765 5.978921905643417 1 2 17.93676571693025
pair_coeff 7 31 wf/cut 0.057257 6.145621669676131 1 2 18.43686500902839
pair_coeff 7 32 wf/cut 0.123306 6.051811079871612 1 2 18.155433239614837
pair_coeff 7 33 wf/cut 0.245890 6.4436539809330755 1 2 19.330961942799227
pair_coeff 7 34 wf/cut 0.190526 6.225980124267849 1 2 18.677940372803548
pair_coeff 7 35 wf/cut 0.074825 5.6188072088999945 1 2 16.856421626699984
pair_coeff 7 36 wf/cut 0.001350 6.080187764149639 1 2 18.24056329244892
pair_coeff 7 37 wf/cut 0.121106 5.874523045623452 1 2 17.623569136870355
pair_coeff 7 38 wf/cut 0.080883 5.816239431041905 1 2 17.448718293125715
pair_coeff 7 39 wf/cut 0.077578 5.775001596638995 1 2 17.325004789916985
pair_coeff 7 40 wf/cut 0.053587 6.146988238119009 1 2 18.44096471435703
pair_coeff 8 8 wf/cut 0.085622 6.177670315650897 1 2 18.533010946952693
pair_coeff 8 9 wf/cut 0.267388 6.453698205558216 1 2 19.36109461667465
pair_coeff 8 10 wf/cut 0.060583 6.155038804583549 1 2 18.46511641375065
pair_coeff 8 11 wf/cut 0.063293 6.321457293122011 1 2 18.964371879366034
pair_coeff 8 12 wf/cut 0.158019 6.22721384211578 1 2 18.681641526347338
pair_coeff 8 13 wf/cut 0.332943 6.61969178186508 1 2 19.85907534559524
pair_coeff 8 14 wf/cut 0.253616 6.401798946045327 1 2 19.205396838135982
pair_coeff 8 15 wf/cut 0.088594 5.794219764312674 1 2 17.382659292938023
pair_coeff 8 16 wf/cut 0.001791 6.2560007029022255 1 2 18.768002108706675
pair_coeff 8 17 wf/cut 0.154719 6.049988923928926 1 2 18.14996677178678
pair_coeff 8 18 wf/cut 0.097133 5.991524845146615 1 2 17.974574535439846
pair_coeff 8 19 wf/cut 0.092450 5.950364732175825 1 2 17.851094196527477
pair_coeff 8 20 wf/cut 0.057992 6.323325627682127 1 2 18.96997688304638
pair_coeff 8 21 wf/cut 0.071523 6.319407907453407 1 2 18.95822372236022
pair_coeff 8 22 wf/cut 0.091476 5.437918514751647 1 2 16.313755544254942
pair_coeff 8 23 wf/cut 0.066853 6.414637503765215 1 2 19.243912511295648
pair_coeff 8 24 wf/cut 0.068499 6.027610728824833 1 2 18.082832186474498
pair_coeff 8 25 wf/cut 0.164070 6.50867097271995 1 2 19.52601291815985
pair_coeff 8 26 wf/cut 0.075100 5.723271374681476 1 2 17.16981412404443
pair_coeff 8 27 wf/cut 0.095204 6.002225923033709 1 2 18.006677769101127
pair_coeff 8 28 wf/cut 0.072560 6.179413824459994 1 2 18.538241473379983
pair_coeff 8 29 wf/cut 0.204571 6.455074051412765 1 2 19.365222154238296
pair_coeff 8 30 wf/cut 0.060170 6.155372367938502 1 2 18.466117103815506
pair_coeff 8 31 wf/cut 0.061662 6.321931368367982 1 2 18.965794105103946
pair_coeff 8 32 wf/cut 0.127711 6.228922014398231 1 2 18.686766043194694
pair_coeff 8 33 wf/cut 0.250295 6.620903112987423 1 2 19.86270933896227
pair_coeff 8 34 wf/cut 0.194931 6.403201712664134 1 2 19.2096051379924
pair_coeff 8 35 wf/cut 0.079230 5.795615810910755 1 2 17.386847432732267
pair_coeff 8 36 wf/cut 0.001379 6.257425310960982 1 2 18.772275932882945
pair_coeff 8 37 wf/cut 0.125511 6.051653861598323 1 2 18.154961584794968
pair_coeff 8 38 wf/cut 0.085288 5.993104375441103 1 2 17.97931312632331
pair_coeff 8 39 wf/cut 0.081983 5.951847773872721 1 2 17.855543321618164
pair_coeff 8 40 wf/cut 0.057992 6.323325627682127 1 2 18.96997688304638
pair_coeff 9 9 wf/cut 0.419186 6.733634028253079 1 2 20.20090208475924
pair_coeff 9 10 wf/cut 0.212382 6.423549039740656 1 2 19.270647119221966
pair_coeff 9 11 wf/cut 0.215092 6.590387900103195 1 2 19.771163700309586
pair_coeff 9 12 wf/cut 0.309817 6.50524897581083 1 2 19.51574692743249
pair_coeff 9 13 wf/cut 0.484741 6.900050363131952 1 2 20.700151089395856
pair_coeff 9 14 wf/cut 0.405414 6.6815889712242855 1 2 20.044766913672856
pair_coeff 9 15 wf/cut 0.240393 6.068280818635755 1 2 18.204842455907265
pair_coeff 9 16 wf/cut 0.393302 6.535691224609458 1 2 19.607073673828374
pair_coeff 9 17 wf/cut 0.306517 6.327982683666391 1 2 18.98394805099917
pair_coeff 9 18 wf/cut 0.248931 6.266295198960733 1 2 18.798885596882197
pair_coeff 9 19 wf/cut 0.244248 6.2246507773507185 1 2 18.673952332052156
pair_coeff 9 20 wf/cut 0.209790 6.5905505017289965 1 2 19.771651505186988
pair_coeff 9 21 wf/cut 0.223322 6.590180270116687 1 2 19.770540810350063
pair_coeff 9 22 wf/cut 0.243275 5.713450024075365 1 2 17.140350072226095
pair_coeff 9 23 wf/cut 0.218651 6.6841805825849985 1 2 20.052541747754994
pair_coeff 9 24 wf/cut 0.220298 6.298178954636986 1 2 18.894536863910957
pair_coeff 9 25 wf/cut 0.315868 6.786739795335731 1 2 20.360219386007195
pair_coeff 9 26 wf/cut 0.226898 5.99553560612189 1 2 17.98660681836567
pair_coeff 9 27 wf/cut 0.247003 6.276768673597067 1 2 18.8303060207912
pair_coeff 9 28 wf/cut 0.250031 6.454011505099358 1 2 19.362034515298074
pair_coeff 9 29 wf/cut 0.356369 6.734156486173098 1 2 20.202469458519293
pair_coeff 9 30 wf/cut 0.211968 6.4235779793345555 1 2 19.270733938003666
pair_coeff 9 31 wf/cut 0.213460 6.590431338464252 1 2 19.771294015392755
pair_coeff 9 32 wf/cut 0.279509 6.505661229041637 1 2 19.516983687124913
pair_coeff 9 33 wf/cut 0.402093 6.900589936537501 1 2 20.701769809612504
pair_coeff 9 34 wf/cut 0.346729 6.682106650582579 1 2 20.046319951747737
pair_coeff 9 35 wf/cut 0.231028 6.06846960743136 1 2 18.20540882229408
pair_coeff 9 36 wf/cut 0.338195 6.536191669581551 1 2 19.60857500874465
pair_coeff 9 37 wf/cut 0.277309 6.328383771538186 1 2 18.98515131461456
pair_coeff 9 38 wf/cut 0.237086 6.266521616565618 1 2 18.799564849696853
pair_coeff 9 39 wf/cut 0.233781 6.224860927463627 1 2 18.674582782390882
pair_coeff 9 40 wf/cut 0.209790 6.5905505017289965 1 2 19.771651505186988
pair_coeff 10 10 wf/cut 0.005578 6.265999286288815 1 2 18.797997858866445
pair_coeff 10 11 wf/cut 0.008288 6.390932891994093 1 2 19.17279867598228
pair_coeff 10 12 wf/cut 0.103013 6.199729734496916 1 2 18.59918920349075
pair_coeff 10 13 wf/cut 0.277937 6.589117480615403 1 2 19.76735244184621
pair_coeff 10 14 wf/cut 0.198610 6.371783619045257 1 2 19.11535085713577
pair_coeff 10 15 wf/cut 0.033589 5.781664862063682 1 2 17.344994586191046
pair_coeff 10 16 wf/cut 0.186498 6.226104236834126 1 2 18.67831271050238
pair_coeff 10 17 wf/cut 0.099713 6.022605657483588 1 2 18.067816972450764
pair_coeff 10 18 wf/cut 0.042127 5.974331431598945 1 2 17.922994294796837
pair_coeff 10 19 wf/cut 0.037444 5.935671447441882 1 2 17.807014342325644
pair_coeff 10 21 wf/cut 0.016518 6.336783382464571 1 2 19.010350147393712
pair_coeff 10 22 wf/cut 0.036471 5.418375566526451 1 2 16.255126699579353
pair_coeff 10 23 wf/cut 0.011847 6.452549354094189 1 2 19.357648062282568
pair_coeff 10 24 wf/cut 0.013494 6.0532242372044625 1 2 18.15967271161339
pair_coeff 10 25 wf/cut 0.109064 6.480992623201166 1 2 19.442977869603496
pair_coeff 10 26 wf/cut 0.020094 5.727883796640076 1 2 17.18365138992023
pair_coeff 10 27 wf/cut 0.040199 5.986137211233324 1 2 17.958411633699974
pair_coeff 10 28 wf/cut 0.043227 6.162354266488605 1 2 18.487062799465814
pair_coeff 10 29 wf/cut 0.149565 6.425899535640867 1 2 19.277698606922602
pair_coeff 10 30 wf/cut 0.005164 6.279450553510229 1 2 18.838351660530687
pair_coeff 10 31 wf/cut 0.006656 6.414806714205564 1 2 19.24442014261669
pair_coeff 10 32 wf/cut 0.072705 6.20424895331838 1 2 18.61274685995514
pair_coeff 10 33 wf/cut 0.195289 6.590957221363035 1 2 19.772871664089106
pair_coeff 10 34 wf/cut 0.139925 6.374256698313246 1 2 19.12277009493974
pair_coeff 10 35 wf/cut 0.024224 5.79281450588842 1 2 17.37844351766526
pair_coeff 10 36 wf/cut 0.131391 6.228661475252712 1 2 18.685984425758136
pair_coeff 10 37 wf/cut 0.070505 6.027117316392745 1 2 18.081351949178234
pair_coeff 10 38 wf/cut 0.030282 5.983977483837185 1 2 17.951932451511553
pair_coeff 10 39 wf/cut 0.026977 5.94607610198081 1 2 17.83822830594243
pair_coeff 11 11 wf/cut 0.010998 6.53407242179841 1 2 19.60221726539523
pair_coeff 11 12 wf/cut 0.105723 6.366490684329992 1 2 19.099472052989977
pair_coeff 11 13 wf/cut 0.280647 6.755935225417062 1 2 20.267805676251186
pair_coeff 11 14 wf/cut 0.201320 6.538603519887749 1 2 19.615810559663245
pair_coeff 11 15 wf/cut 0.036299 5.946968662780402 1 2 17.840905988341206
pair_coeff 11 16 wf/cut 0.189208 6.392942886970462 1 2 19.178828660911385
pair_coeff 11 17 wf/cut 0.102423 6.189364574070181 1 2 18.56809372221054
pair_coeff 11 18 wf/cut 0.044837 6.1402119935661545 1 2 18.420635980698464
pair_coeff 11 19 wf/cut 0.040154 6.101247830628814 1 2 18.30374349188644
pair_coeff 11 20 wf/cut 0.005696 6.607723261980873 1 2 19.823169785942618
pair_coeff 11 21 wf/cut 0.019228 6.496393035701747 1 2 19.48917910710524
pair_coeff 11 22 wf/cut 0.039181 5.584501642231329 1 2 16.753504926693985
pair_coeff 11 23 wf/cut 0.014557 6.60658239133453 1 2 19.819747174003588
pair_coeff 11 24 wf/cut 0.016204 6.210508609486856 1 2 18.631525828460568
pair_coeff 11 25 wf/cut 0.111774 6.647740379710509 1 2 19.943221139131527
pair_coeff 11 26 wf/cut 0.022804 5.890170182090268 1 2 17.670510546270805
pair_coeff 11 27 wf/cut 0.042909 6.151889183567281 1 2 18.455667550701843
pair_coeff 11 28 wf/cut 0.045937 6.3282208238107795 1 2 18.984662471432337
pair_coeff 11 29 wf/cut 0.152275 6.5927216895129135 1 2 19.77816506853874
pair_coeff 11 30 wf/cut 0.007874 6.397951767513159 1 2 19.193855302539475
pair_coeff 11 31 wf/cut 0.009366 6.548412328573101 1 2 19.645236985719304
pair_coeff 11 32 wf/cut 0.075415 6.370842118401069 1 2 19.112526355203208
pair_coeff 11 33 wf/cut 0.197999 6.75777413374384 1 2 20.27332240123152
pair_coeff 11 34 wf/cut 0.142635 6.541054552668633 1 2 19.623163658005897
pair_coeff 11 35 wf/cut 0.026934 5.956563720651988 1 2 17.869691161955963
pair_coeff 11 36 wf/cut 0.134101 6.395473237725452 1 2 19.186419713176356
pair_coeff 11 37 wf/cut 0.073215 6.193703302501737 1 2 18.58110990750521
pair_coeff 11 38 wf/cut 0.032992 6.148785435376327 1 2 18.446356306128983
pair_coeff 11 39 wf/cut 0.029687 6.110345071454451 1 2 18.331035214363354
pair_coeff 11 40 wf/cut 0.005696 6.607723261980873 1 2 19.823169785942618
pair_coeff 12 12 wf/cut 0.200448 6.277850874229409 1 2 18.833552622688227
pair_coeff 12 13 wf/cut 0.375372 6.671405311072043 1 2 20.01421593321613
pair_coeff 12 14 wf/cut 0.296045 6.4532756440329795 1 2 19.35982693209894
pair_coeff 12 15 wf/cut 0.131024 5.84255485528308 1 2 17.52766456584924
pair_coeff 12 16 wf/cut 0.283933 6.307431677259977 1 2 18.92229503177993
pair_coeff 12 17 wf/cut 0.197148 6.100591694847331 1 2 18.301775084541994
pair_coeff 12 18 wf/cut 0.139562 6.040345112977554 1 2 18.12103533893266
pair_coeff 12 19 wf/cut 0.134879 5.998852825433778 1 2 17.99655847630133
pair_coeff 12 20 wf/cut 0.100421 6.367152767929573 1 2 19.101458303788718
pair_coeff 12 21 wf/cut 0.113953 6.365699666568734 1 2 19.0970989997062
pair_coeff 12 22 wf/cut 0.133906 5.487109605448974 1 2 16.46132881634692
pair_coeff 12 23 wf/cut 0.109282 6.460110665288058 1 2 19.380331995864175
pair_coeff 12 24 wf/cut 0.110929 6.07371622854753 1 2 18.22114868564259
pair_coeff 12 25 wf/cut 0.206499 6.559327404195954 1 2 19.67798221258786
pair_coeff 12 26 wf/cut 0.117529 5.770434344200525 1 2 17.311303032601575
pair_coeff 12 27 wf/cut 0.137634 6.050878049577443 1 2 18.15263414873233
pair_coeff 12 28 wf/cut 0.140662 6.22811906216779 1 2 18.68435718650337
pair_coeff 12 29 wf/cut 0.247000 6.506235094735004 1 2 19.518705284205012
pair_coeff 12 30 wf/cut 0.102599 6.199847722340906 1 2 18.59954316702272
pair_coeff 12 31 wf/cut 0.104091 6.366663725733202 1 2 19.099991177199605
pair_coeff 12 32 wf/cut 0.170140 6.278875223812024 1 2 18.836625671436074
pair_coeff 12 33 wf/cut 0.292724 6.6723319742793255 1 2 20.016995922837978
pair_coeff 12 34 wf/cut 0.237360 6.454265231889239 1 2 19.362795695667717
pair_coeff 12 35 wf/cut 0.121659 5.8431832590102974 1 2 17.529549777030894
pair_coeff 12 36 wf/cut 0.228826 6.308421039847022 1 2 18.925263119541064
pair_coeff 12 37 wf/cut 0.167940 6.10158175427316 1 2 18.30474526281948
pair_coeff 12 38 wf/cut 0.127717 6.041063379946771 1 2 18.123190139840315
pair_coeff 12 39 wf/cut 0.124412 5.999536872422517 1 2 17.998610617267552
pair_coeff 12 40 wf/cut 0.100421 6.367152767929573 1 2 19.101458303788718
pair_coeff 13 13 wf/cut 0.550297 7.066547961746265 1 2 21.199643885238793
pair_coeff 13 14 wf/cut 0.470970 6.84798437757724 1 2 20.54395313273172
pair_coeff 13 15 wf/cut 0.305948 6.234139720557474 1 2 18.702419161672424
pair_coeff 13 16 wf/cut 0.458857 6.702091518082294 1 2 20.10627455424688
pair_coeff 13 17 wf/cut 0.372073 6.494164476750084 1 2 19.48249343025025
pair_coeff 13 18 wf/cut 0.314487 6.432174788842087 1 2 19.29652436652626
pair_coeff 13 19 wf/cut 0.309804 6.390531854157171 1 2 19.171595562471513
pair_coeff 13 20 wf/cut 0.275346 6.756032732095156 1 2 20.268098196285468
pair_coeff 13 21 wf/cut 0.288877 6.755817014102551 1 2 20.267451042307652
pair_coeff 13 22 wf/cut 0.308830 5.879425000161095 1 2 17.638275000483283
pair_coeff 13 23 wf/cut 0.284207 6.8497445004881925 1 2 20.549233501464578
pair_coeff 13 24 wf/cut 0.285853 6.4638463520895115 1 2 19.391539056268535
pair_coeff 13 25 wf/cut 0.381424 6.952910842994874 1 2 20.85873252898462
pair_coeff 13 26 wf/cut 0.292454 6.1613130283141055 1 2 18.483939084942318
pair_coeff 13 27 wf/cut 0.312558 6.442631932062835 1 2 19.327895796188507
pair_coeff 13 28 wf/cut 0.315587 6.619890395721167 1 2 19.8596711871635
pair_coeff 13 29 wf/cut 0.421925 6.900441239237516 1 2 20.701323717712548
pair_coeff 13 30 wf/cut 0.277524 6.589134834507833 1 2 19.7674045035235
pair_coeff 13 31 wf/cut 0.279016 6.755970194682537 1 2 20.267910584047613
pair_coeff 13 32 wf/cut 0.345065 6.671688068448729 1 2 20.015064205346185
pair_coeff 13 33 wf/cut 0.467649 7.066966231238362 1 2 21.200898693715086
pair_coeff 13 34 wf/cut 0.412285 6.848368288265007 1 2 20.54510486479502
pair_coeff 13 35 wf/cut 0.296584 6.23425905911194 1 2 18.70277717733582
pair_coeff 13 36 wf/cut 0.403751 6.702459807412386 1 2 20.10737942223716
pair_coeff 13 37 wf/cut 0.342865 6.494438889291505 1 2 19.483316667874515
pair_coeff 13 38 wf/cut 0.302642 6.4323262444775215 1 2 19.296978733432564
pair_coeff 13 39 wf/cut 0.299337 6.3906653903753785 1 2 19.171996171126136
pair_coeff 13 40 wf/cut 0.275346 6.756032732095156 1 2 20.268098196285468
pair_coeff 14 14 wf/cut 0.391642 6.629549396410893 1 2 19.88864818923268
pair_coeff 14 15 wf/cut 0.226621 6.016400811210637 1 2 18.049202433631912
pair_coeff 14 16 wf/cut 0.379530 6.483674128071082 1 2 19.451022384213246
pair_coeff 14 17 wf/cut 0.292745 6.276026354822916 1 2 18.828079064468746
pair_coeff 14 18 wf/cut 0.235159 6.2144055979415755 1 2 18.643216793824728
pair_coeff 14 19 wf/cut 0.230476 6.172787382997035 1 2 18.518362148991105
pair_coeff 14 20 wf/cut 0.196018 6.538787910119839 1 2 19.616363730359517
pair_coeff 14 21 wf/cut 0.209550 6.538369107168012 1 2 19.615107321504034
pair_coeff 14 22 wf/cut 0.229503 5.661533193978743 1 2 16.98459958193623
pair_coeff 14 23 wf/cut 0.204879 6.632390006238709 1 2 19.89717001871613
pair_coeff 14 24 wf/cut 0.206526 6.246381672050424 1 2 18.73914501615127
pair_coeff 14 25 wf/cut 0.302096 6.734778137463742 1 2 20.204334412391226
pair_coeff 14 26 wf/cut 0.213126 5.94370434405314 1 2 17.831113032159422
pair_coeff 14 27 wf/cut 0.233231 6.2248725061501835 1 2 18.67461751845055
pair_coeff 14 28 wf/cut 0.236259 6.402145618033878 1 2 19.206436854101636
pair_coeff 14 29 wf/cut 0.342598 6.6821466956694 1 2 20.0464400870082
pair_coeff 14 30 wf/cut 0.198196 6.3718164337361864 1 2 19.11544930120856
pair_coeff 14 31 wf/cut 0.199688 6.538652708676239 1 2 19.61595812602872
pair_coeff 14 32 wf/cut 0.265737 6.453725824442914 1 2 19.361177473328745
pair_coeff 14 33 wf/cut 0.388321 6.848555261309869 1 2 20.545665783929607
pair_coeff 14 34 wf/cut 0.332957 6.630097176272377 1 2 19.89029152881713
pair_coeff 14 35 wf/cut 0.217256 6.0166118728379825 1 2 18.049835618513946
pair_coeff 14 36 wf/cut 0.324423 6.484210545760694 1 2 19.45263163728208
pair_coeff 14 37 wf/cut 0.263537 6.276464594313065 1 2 18.829393782939196
pair_coeff 14 38 wf/cut 0.223314 6.2146578822218475 1 2 18.643973646665543
pair_coeff 14 39 wf/cut 0.220009 6.173021960210248 1 2 18.51906588063074
pair_coeff 14 40 wf/cut 0.196018 6.538787910119839 1 2 19.616363730359517
pair_coeff 15 15 wf/cut 0.061600 5.412669704115792 1 2 16.238009112347374
pair_coeff 15 16 wf/cut 0.214509 5.870633388669294 1 2 17.61190016600788
pair_coeff 15 17 wf/cut 0.127724 5.665328065098679 1 2 16.99598419529604
pair_coeff 15 18 wf/cut 0.070138 5.60931576883087 1 2 16.82794730649261
pair_coeff 15 19 wf/cut 0.065455 5.568478936337624 1 2 16.705436809012873
pair_coeff 15 20 wf/cut 0.030997 5.95253426830798 1 2 17.857602804923943
pair_coeff 15 21 wf/cut 0.044529 5.941730116730399 1 2 17.8251903501912
pair_coeff 15 22 wf/cut 0.064482 5.055066526249052 1 2 15.165199578747156
pair_coeff 15 23 wf/cut 0.039858 6.0388189375203165 1 2 18.116456812560948
pair_coeff 15 24 wf/cut 0.041505 5.650569731939204 1 2 16.951709195817614
pair_coeff 15 25 wf/cut 0.137075 6.123955851741878 1 2 18.371867555225634
pair_coeff 15 26 wf/cut 0.048105 5.343933138992498 1 2 16.031799416977496
pair_coeff 15 27 wf/cut 0.068210 5.620115241697351 1 2 16.860345725092053
pair_coeff 15 28 wf/cut 0.071238 5.79714638380999 1 2 17.39143915142997
pair_coeff 15 29 wf/cut 0.177576 6.069943102760143 1 2 18.20982930828043
pair_coeff 15 30 wf/cut 0.033175 5.7826589372196375 1 2 17.347976811658913
pair_coeff 15 31 wf/cut 0.034667 5.948302390882524 1 2 17.84490717264757
pair_coeff 15 32 wf/cut 0.100716 5.845003436795657 1 2 17.53501031038697
pair_coeff 15 33 wf/cut 0.223300 6.235536027214636 1 2 18.706608081643907
pair_coeff 15 34 wf/cut 0.167936 6.018117533790267 1 2 18.054352601370802
pair_coeff 15 35 wf/cut 0.052235 5.415473890209146 1 2 16.246421670627438
pair_coeff 15 36 wf/cut 0.159402 5.872398100194439 1 2 17.617194300583318
pair_coeff 15 37 wf/cut 0.098516 5.667732143982081 1 2 17.003196431946243
pair_coeff 15 38 wf/cut 0.058293 5.612162941341123 1 2 16.83648882402337
pair_coeff 15 39 wf/cut 0.054988 5.571364187563539 1 2 16.714092562690617
pair_coeff 15 40 wf/cut 0.030997 5.95253426830798 1 2 17.857602804923943
pair_coeff 16 16 wf/cut 0.027216 6.337782403912046 1 2 19.01334721173614
pair_coeff 16 17 wf/cut 0.280633 6.130180422228775 1 2 18.390541266686323
pair_coeff 16 18 wf/cut 0.223047 6.068649252074198 1 2 18.205947756222592
pair_coeff 16 19 wf/cut 0.218364 6.027019005823624 1 2 18.081057017470872
pair_coeff 16 20 wf/cut 0.183906 6.393147480752069 1 2 19.179442442256207
pair_coeff 16 21 wf/cut 0.197438 6.392683938124808 1 2 19.178051814374424
pair_coeff 16 22 wf/cut 0.217391 5.515750877499212 1 2 16.547252632497635
pair_coeff 16 23 wf/cut 0.192767 6.486724075272986 1 2 19.46017222581896
pair_coeff 16 24 wf/cut 0.194414 6.100672500483568 1 2 18.302017501450702
pair_coeff 16 25 wf/cut 0.289984 6.588935233441612 1 2 19.766805700324838
pair_coeff 16 26 wf/cut 0.201014 5.79796325726322 1 2 17.39388977178966
pair_coeff 16 27 wf/cut 0.221118 6.0791010484529915 1 2 18.237303145358975
pair_coeff 16 28 wf/cut 0.224147 6.256376087421608 1 2 18.769128262264825
pair_coeff 16 29 wf/cut 0.330485 6.536274979404401 1 2 19.608824938213203
pair_coeff 16 30 wf/cut 0.186084 6.226140636452508 1 2 18.678421909357525
pair_coeff 16 31 wf/cut 0.187576 6.392997387325535 1 2 19.178992161976602
pair_coeff 16 32 wf/cut 0.253625 6.307912958718467 1 2 18.9237388761554
pair_coeff 16 33 wf/cut 0.376209 6.702684222295407 1 2 20.10805266688622
pair_coeff 16 34 wf/cut 0.320845 6.484248553549719 1 2 19.452745660649157
pair_coeff 16 35 wf/cut 0.205144 5.870864049052838 1 2 17.612592147158516
pair_coeff 16 36 wf/cut 0.023134 6.338345846056568 1 2 19.015037538169704
pair_coeff 16 37 wf/cut 0.251425 6.130649043241044 1 2 18.391947129723132
pair_coeff 16 38 wf/cut 0.211202 6.0689241564117395 1 2 18.20677246923522
pair_coeff 16 39 wf/cut 0.207897 6.027275074473145 1 2 18.081825223419436
pair_coeff 16 40 wf/cut 0.183906 6.393147480752069 1 2 19.179442442256207
pair_coeff 17 17 wf/cut 0.193849 5.9233491242788805 1 2 17.770047372836643
pair_coeff 17 18 wf/cut 0.136263 5.8630821184928195 1 2 17.58924635547846
pair_coeff 17 19 wf/cut 0.131580 5.821644218417775 1 2 17.464932655253325
pair_coeff 17 20 wf/cut 0.097122 6.1899864646586105 1 2 18.569959393975832
pair_coeff 17 21 wf/cut 0.110653 6.188546099325202 1 2 18.565638297975607
pair_coeff 17 22 wf/cut 0.130606 5.30983190747035 1 2 15.929495722411051
pair_coeff 17 23 wf/cut 0.105983 6.282921319282791 1 2 18.848763957848373
pair_coeff 17 24 wf/cut 0.107629 5.896489952968157 1 2 17.68946985890447
pair_coeff 17 25 wf/cut 0.203200 6.382089400238762 1 2 19.146268200716285
pair_coeff 17 26 wf/cut 0.114230 5.59320394576633 1 2 16.77961183729899
pair_coeff 17 27 wf/cut 0.134334 5.873649240456693 1 2 17.62094772137008
pair_coeff 17 28 wf/cut 0.137363 6.050910374214647 1 2 18.152731122643942
pair_coeff 17 29 wf/cut 0.243701 6.328963417719822 1 2 18.986890253159466
pair_coeff 17 30 wf/cut 0.099300 6.022666584916778 1 2 18.067999754750335
pair_coeff 17 31 wf/cut 0.100792 6.189544117007458 1 2 18.568632351022373
pair_coeff 17 32 wf/cut 0.166841 6.101625831837799 1 2 18.304877495513395
pair_coeff 17 33 wf/cut 0.289424 6.495083547619462 1 2 19.485250642858386
pair_coeff 17 34 wf/cut 0.234061 6.277022750655092 1 2 18.831068251965277
pair_coeff 17 35 wf/cut 0.118359 5.665971807159278 1 2 16.997915421477835
pair_coeff 17 36 wf/cut 0.225527 6.131165252735328 1 2 18.393495758205983
pair_coeff 17 37 wf/cut 0.164641 5.924348407080925 1 2 17.773045221242775
pair_coeff 17 38 wf/cut 0.124417 5.863848431499796 1 2 17.591545294499387
pair_coeff 17 39 wf/cut 0.121113 5.822344488616284 1 2 17.46703346584885
pair_coeff 17 40 wf/cut 0.097122 6.1899864646586105 1 2 18.569959393975832
pair_coeff 18 18 wf/cut 0.078677 5.806155150598376 1 2 17.41846545179513
pair_coeff 18 19 wf/cut 0.073994 5.765149033334852 1 2 17.29544710000456
pair_coeff 18 20 wf/cut 0.039536 6.143860896897243 1 2 18.431582690691727
pair_coeff 18 21 wf/cut 0.053067 6.136530836242518 1 2 18.409592508727556
pair_coeff 18 22 wf/cut 0.073020 5.2521394224496145 1 2 15.756418267348844
pair_coeff 18 23 wf/cut 0.048396 6.232722071931244 1 2 18.698166215793734
pair_coeff 18 24 wf/cut 0.050043 5.845049472828402 1 2 17.535148418485207
pair_coeff 18 25 wf/cut 0.145613 6.3217567788528175 1 2 18.965270336558454
pair_coeff 18 26 wf/cut 0.056644 5.539473279208256 1 2 16.618419837624767
pair_coeff 18 27 wf/cut 0.076748 5.816985496228361 1 2 17.450956488685083
pair_coeff 18 28 wf/cut 0.079776 5.993977654615634 1 2 17.9819329638469
pair_coeff 18 29 wf/cut 0.186115 6.267859616819192 1 2 18.803578850457576
pair_coeff 18 30 wf/cut 0.041714 5.974983307333975 1 2 17.924949922001925
pair_coeff 18 31 wf/cut 0.043205 6.1411099770057245 1 2 18.42332993101717
pair_coeff 18 32 wf/cut 0.109254 6.042493928204347 1 2 18.12748178461304
pair_coeff 18 33 wf/cut 0.231838 6.433519247230287 1 2 19.300557741690863
pair_coeff 18 34 wf/cut 0.176474 6.216033392034327 1 2 18.648100176102982
pair_coeff 18 35 wf/cut 0.060773 5.611389850569513 1 2 16.834169551708538
pair_coeff 18 36 wf/cut 0.167940 6.070294170144763 1 2 18.21088251043429
pair_coeff 18 37 wf/cut 0.107055 5.865217375098184 1 2 17.595652125294553
pair_coeff 18 38 wf/cut 0.066831 5.808437279092397 1 2 17.425311837277192
pair_coeff 18 39 wf/cut 0.063527 5.767428643819603 1 2 17.302285931458808
pair_coeff 18 40 wf/cut 0.039536 6.143860896897243 1 2 18.431582690691727
pair_coeff 19 19 wf/cut 0.069311 5.724362787504792 1 2 17.173088362514378
pair_coeff 19 20 wf/cut 0.034853 6.10586575299424 1 2 18.31759725898272
pair_coeff 19 21 wf/cut 0.048384 6.0967512192398505 1 2 18.290253657719553
pair_coeff 19 22 wf/cut 0.068337 5.211108138159037 1 2 15.633324414477112
pair_coeff 19 23 wf/cut 0.043714 6.1934329156331 1 2 18.5802987468993
pair_coeff 19 24 wf/cut 0.045360 5.805442925019495 1 2 17.416328775058485
pair_coeff 19 25 wf/cut 0.140930 6.280274061428144 1 2 18.84082218428443
pair_coeff 19 26 wf/cut 0.051961 5.499319146540279 1 2 16.497957439620837
pair_coeff 19 27 wf/cut 0.072065 5.776024303801226 1 2 17.328072911403677
pair_coeff 19 28 wf/cut 0.075093 5.953096206763187 1 2 17.85928862028956
pair_coeff 19 29 wf/cut 0.181432 6.226290621468162 1 2 18.678871864404485
pair_coeff 19 30 wf/cut 0.037031 5.936496588820257 1 2 17.80948976646077
pair_coeff 19 31 wf/cut 0.038522 6.10236911417194 1 2 18.30710734251582
pair_coeff 19 32 wf/cut 0.104571 6.001202451726246 1 2 18.003607355178737
pair_coeff 19 33 wf/cut 0.227155 6.391918936768799 1 2 19.175756810306396
pair_coeff 19 34 wf/cut 0.171791 6.174477574070478 1 2 18.52343272221143
pair_coeff 19 35 wf/cut 0.056090 5.571011278043507 1 2 16.71303383413052
pair_coeff 19 36 wf/cut 0.163258 6.028753613252821 1 2 18.086260839758463
pair_coeff 19 37 wf/cut 0.102372 5.823949131867462 1 2 17.471847395602385
pair_coeff 19 38 wf/cut 0.062148 5.767856883865312 1 2 17.303570651595933
pair_coeff 19 39 wf/cut 0.058844 5.726983480603789 1 2 17.18095044181137
pair_coeff 19 40 wf/cut 0.034853 6.10586575299424 1 2 18.31759725898272
pair_coeff 20 21 wf/cut 0.013926 6.5199210046589675 1 2 19.5597630139769
pair_coeff 20 22 wf/cut 0.033879 5.587459907599181 1 2 16.76237972279754
pair_coeff 20 23 wf/cut 0.009256 6.649574443493311 1 2 19.948723330479933
pair_coeff 20 24 wf/cut 0.010902 6.242374503621665 1 2 18.727123510864995
pair_coeff 20 25 wf/cut 0.106472 6.648355967009086 1 2 19.945067901027258
pair_coeff 20 26 wf/cut 0.017503 5.903567074401621 1 2 17.71070122320486
pair_coeff 20 27 wf/cut 0.037607 6.155943831058615 1 2 18.467831493175847
pair_coeff 20 28 wf/cut 0.040635 6.331503643570952 1 2 18.994510930712856
pair_coeff 20 29 wf/cut 0.146974 6.593018960515583 1 2 19.77905688154675
pair_coeff 20 32 wf/cut 0.070113 6.372029116976672 1 2 19.116087350930016
pair_coeff 20 33 wf/cut 0.192697 6.757970683221281 1 2 20.273912049663842
pair_coeff 20 34 wf/cut 0.137333 6.5414250271565235 1 2 19.62427508146957
pair_coeff 20 35 wf/cut 0.021632 5.967018638311549 1 2 17.901055914934645
pair_coeff 20 36 wf/cut 0.128800 6.395882535691026 1 2 19.187647607073078
pair_coeff 20 37 wf/cut 0.067914 6.194931490620908 1 2 18.584794471862722
pair_coeff 20 38 wf/cut 0.027690 6.155796177211015 1 2 18.467388531633045
pair_coeff 20 39 wf/cut 0.024386 6.119051758363574 1 2 18.357155275090722
pair_coeff 21 21 wf/cut 0.027458 6.480069420606985 1 2 19.440208261820956
pair_coeff 21 22 wf/cut 0.047411 5.581642130693901 1 2 16.7449263920817
pair_coeff 21 23 wf/cut 0.022787 6.583002517343036 1 2 19.74900755202911
pair_coeff 21 24 wf/cut 0.024433 6.191552500203247 1 2 18.574657500609742
pair_coeff 21 25 wf/cut 0.120004 6.646999738911693 1 2 19.94099921673508
pair_coeff 21 26 wf/cut 0.031034 5.878598106878971 1 2 17.63579432063691
pair_coeff 21 27 wf/cut 0.051138 6.1478586796466335 1 2 18.443576038939902
pair_coeff 21 28 wf/cut 0.054167 6.324516380690015 1 2 18.973549142070045
pair_coeff 21 29 wf/cut 0.160505 6.592313711480712 1 2 19.776941134442136
pair_coeff 21 30 wf/cut 0.016104 6.340969704607503 1 2 19.02290911382251
pair_coeff 21 31 wf/cut 0.017596 6.5013402123206046 1 2 19.504020636961812
pair_coeff 21 32 wf/cut 0.083645 6.369348945541728 1 2 19.108046836625185
pair_coeff 21 33 wf/cut 0.206229 6.757540572332879 1 2 20.27262171699864
pair_coeff 21 34 wf/cut 0.150865 6.540596793679068 1 2 19.621790381037204
pair_coeff 21 35 wf/cut 0.035164 5.947844531230358 1 2 17.843533593691074
pair_coeff 21 36 wf/cut 0.142331 6.39500222582037 1 2 19.18500667746111
pair_coeff 21 37 wf/cut 0.081445 6.192166186380409 1 2 18.57649855914123
pair_coeff 21 38 wf/cut 0.041222 6.142414836822247 1 2 18.42724451046674
pair_coeff 21 39 wf/cut 0.037917 6.102763659737872 1 2 18.308290979213616
pair_coeff 21 40 wf/cut 0.013926 6.5199210046589675 1 2 19.5597630139769
pair_coeff 22 22 wf/cut 0.067364 4.698227190160832 1 2 14.094681570482496
pair_coeff 22 23 wf/cut 0.042740 5.6772849911904 1 2 17.0318549735712
pair_coeff 22 24 wf/cut 0.044387 5.289807269665101 1 2 15.869421808995302
pair_coeff 22 25 wf/cut 0.139957 5.768554114508845 1 2 17.305662343526535
pair_coeff 22 26 wf/cut 0.050987 4.984686027270456 1 2 14.954058081811368
pair_coeff 22 27 wf/cut 0.071091 5.262912382415455 1 2 15.788737147246366
pair_coeff 22 28 wf/cut 0.074120 5.439975772862831 1 2 16.319927318588494
pair_coeff 22 29 wf/cut 0.180458 5.714850862757114 1 2 17.144552588271342
pair_coeff 22 30 wf/cut 0.036057 5.418902704026212 1 2 16.256708112078634
pair_coeff 22 31 wf/cut 0.037549 5.585489758070483 1 2 16.756469274211447
pair_coeff 22 32 wf/cut 0.103598 5.489037080971375 1 2 16.467111242914125
pair_coeff 22 33 wf/cut 0.226182 5.8806376350894025 1 2 17.641912905268207
pair_coeff 22 34 wf/cut 0.170818 5.662987686021554 1 2 16.988963058064662
pair_coeff 22 35 wf/cut 0.055117 5.056931123036382 1 2 15.170793369109145
pair_coeff 22 36 wf/cut 0.162284 5.517215784587296 1 2 16.551647353761886
pair_coeff 22 37 wf/cut 0.101398 5.311696859115723 1 2 15.935090577347168
pair_coeff 22 38 wf/cut 0.061175 5.254183030641423 1 2 15.762549091924269
pair_coeff 22 39 wf/cut 0.057870 5.213062357159386 1 2 15.639187071478158
pair_coeff 22 40 wf/cut 0.033879 5.587459907599181 1 2 16.76237972279754
pair_coeff 23 23 wf/cut 0.013420 6.688853536606121 1 2 20.066560609818364
pair_coeff 23 24 wf/cut 0.019763 6.29527868599085 1 2 18.885836057972547
pair_coeff 23 25 wf/cut 0.085206 6.741392723436803 1 2 20.22417817031041
pair_coeff 23 26 wf/cut 0.026364 5.978305270632397 1 2 17.93491581189719
pair_coeff 23 27 wf/cut 0.000342 6.244253298502354 1 2 18.732759895507062
pair_coeff 23 28 wf/cut 0.000366 6.4204818546224995 1 2 19.261445563867497
pair_coeff 23 29 wf/cut 0.071890 6.686432938070228 1 2 20.059298814210685
pair_coeff 23 30 wf/cut 0.011434 6.460111302128625 1 2 19.380333906385875
pair_coeff 23 31 wf/cut 0.012925 6.617996254538358 1 2 19.853988763615074
pair_coeff 23 32 wf/cut 0.078974 6.4641118645001 1 2 19.3923355935003
pair_coeff 23 33 wf/cut 0.073358 6.85155566549562 1 2 20.55466699648686
pair_coeff 23 34 wf/cut 0.080693 6.634779187210656 1 2 19.90433756163197
pair_coeff 23 35 wf/cut 0.030493 6.046847416569171 1 2 18.14054224970751
pair_coeff 23 36 wf/cut 0.061166 6.489185414364156 1 2 19.467556243092467
pair_coeff 23 37 wf/cut 0.076775 6.2869559403051 1 2 18.860867820915303
pair_coeff 23 38 wf/cut 0.036551 6.240136548485556 1 2 18.72040964545667
pair_coeff 23 39 wf/cut 0.033247 6.2011686854634664 1 2 18.6035060563904
pair_coeff 23 40 wf/cut 0.009256 6.649574443493311 1 2 19.948723330479933
pair_coeff 24 24 wf/cut 0.021409 5.902825373061459 1 2 17.708476119184375
pair_coeff 24 25 wf/cut 0.116980 6.355020618222843 1 2 19.065061854668528
pair_coeff 24 26 wf/cut 0.028010 5.588184701124206 1 2 16.764554103372618
pair_coeff 24 27 wf/cut 0.048114 5.856453272809193 1 2 17.56935981842758
pair_coeff 24 28 wf/cut 0.051143 6.03282984385001 1 2 18.09848953155003
pair_coeff 24 29 wf/cut 0.157481 6.300272873273843 1 2 18.90081861982153
pair_coeff 24 30 wf/cut 0.013080 6.05885560137348 1 2 18.17656680412044
pair_coeff 24 31 wf/cut 0.014572 6.219293562690735 1 2 18.657880688072204
pair_coeff 24 32 wf/cut 0.080621 6.077365593674358 1 2 18.232096781023074
pair_coeff 24 33 wf/cut 0.203205 6.465539023765016 1 2 19.396617071295047
pair_coeff 24 34 wf/cut 0.147841 6.248599086448351 1 2 18.745797259345053
pair_coeff 24 35 wf/cut 0.032140 5.6574738585901345 1 2 16.972421575770404
pair_coeff 24 36 wf/cut 0.139307 6.102951668547555 1 2 18.308855005642666
pair_coeff 24 37 wf/cut 0.078421 5.900160965208208 1 2 17.700482895624624
pair_coeff 24 38 wf/cut 0.038198 5.85153222065546 1 2 17.55459666196638
pair_coeff 24 39 wf/cut 0.034893 5.812153931855011 1 2 17.436461795565034
pair_coeff 24 40 wf/cut 0.010902 6.242374503621665 1 2 18.727123510864995
pair_coeff 25 25 wf/cut 0.062978 6.840818860381698 1 2 20.522456581145093
pair_coeff 25 26 wf/cut 0.123581 6.051811079871612 1 2 18.155433239614837
pair_coeff 25 27 wf/cut 0.001064 6.332285213812248 1 2 18.996855641436742
pair_coeff 25 28 wf/cut 0.001085 6.509542326637676 1 2 19.528626979913028
pair_coeff 25 29 wf/cut 0.425474 6.7877218996841355 1 2 20.363165699052406
pair_coeff 25 30 wf/cut 0.108651 6.481102402445426 1 2 19.44330720733628
pair_coeff 25 31 wf/cut 0.110142 6.647901648052044 1 2 19.94370494415613
pair_coeff 25 32 wf/cut 0.176191 6.560327886240045 1 2 19.680983658720134
pair_coeff 25 33 wf/cut 0.484160 6.953839371357665 1 2 20.861518114072993
pair_coeff 25 34 wf/cut 0.381459 6.735769622233203 1 2 20.20730886669961
pair_coeff 25 35 wf/cut 0.127710 6.1245540687340725 1 2 18.37366220620222
pair_coeff 25 36 wf/cut 0.086889 6.589926019306955 1 2 19.769778057920867
pair_coeff 25 37 wf/cut 0.173991 6.38305646617526 1 2 19.14916939852578
pair_coeff 25 38 wf/cut 0.133768 6.322442926130092 1 2 18.967328778390275
pair_coeff 25 39 wf/cut 0.130463 6.280926022691235 1 2 18.842778068073706
pair_coeff 25 40 wf/cut 0.106472 6.648355967009086 1 2 19.945067901027258
pair_coeff 26 26 wf/cut 0.034611 5.278051554722805 1 2 15.834154664168416
pair_coeff 26 27 wf/cut 0.054715 5.550632394717641 1 2 16.651897184152922
pair_coeff 26 28 wf/cut 0.057743 5.727313013729271 1 2 17.18193904118781
pair_coeff 26 29 wf/cut 0.164082 5.997401234701861 1 2 17.99220370410558
pair_coeff 26 30 wf/cut 0.019681 5.729200436106479 1 2 17.187601308319437
pair_coeff 26 31 wf/cut 0.021172 5.893502125092778 1 2 17.680506375278334
pair_coeff 26 32 wf/cut 0.087222 5.77355467816977 1 2 17.32066403450931
pair_coeff 26 33 wf/cut 0.209805 6.162846524069043 1 2 18.48853957220713
pair_coeff 26 34 wf/cut 0.154442 5.945670315140756 1 2 17.837010945422268
pair_coeff 26 35 wf/cut 0.038740 5.3486854588231765 1 2 16.04605637646953
pair_coeff 26 36 wf/cut 0.145908 5.799973083941243 1 2 17.39991925182373
pair_coeff 26 37 wf/cut 0.085022 5.596251927245512 1 2 16.788755781736537
pair_coeff 26 38 wf/cut 0.044798 5.544164768287125 1 2 16.632494304861375
pair_coeff 26 39 wf/cut 0.041494 5.504054682438701 1 2 16.512164047316105
pair_coeff 26 40 wf/cut 0.017503 5.903567074401621 1 2 17.71070122320486
pair_coeff 27 27 wf/cut 0.055422 5.8277356350076115 1 2 17.483206905022833
pair_coeff 27 28 wf/cut 0.057461 6.0048083393750415 1 2 18.014425018125124
pair_coeff 27 29 wf/cut 0.184186 6.278368151196274 1 2 18.83510445358882
pair_coeff 27 30 wf/cut 0.039785 5.986861716352022 1 2 17.960585149056065
pair_coeff 27 31 wf/cut 0.041277 6.152881477214971 1 2 18.458644431644913
pair_coeff 27 32 wf/cut 0.107326 6.053140955180234 1 2 18.159422865540705
pair_coeff 27 33 wf/cut 0.229910 6.444000765960297 1 2 19.33200229788089
pair_coeff 27 34 wf/cut 0.174546 6.226529663564308 1 2 18.679588990692924
pair_coeff 27 35 wf/cut 0.058845 5.622457081906772 1 2 16.867371245720314
pair_coeff 27 36 wf/cut 0.001228 6.080799532766481 1 2 18.242398598299445
pair_coeff 27 37 wf/cut 0.105126 5.875867449320084 1 2 17.627602347960252
pair_coeff 27 38 wf/cut 0.064903 5.819413545043322 1 2 17.458240635129968
pair_coeff 27 39 wf/cut 0.061598 5.778457730344957 1 2 17.335373191034872
pair_coeff 27 40 wf/cut 0.037607 6.155943831058615 1 2 18.467831493175847
pair_coeff 28 28 wf/cut 0.059908 6.1818125994432265 1 2 18.54543779832968
pair_coeff 28 29 wf/cut 0.187215 6.4556028384801145 1 2 19.366808515440344
pair_coeff 28 30 wf/cut 0.042814 6.162677260323304 1 2 18.488031780969912
pair_coeff 28 31 wf/cut 0.044305 6.329122536684595 1 2 18.987367610053788
pair_coeff 28 32 wf/cut 0.110354 6.230341958421634 1 2 18.691025875264902
pair_coeff 28 33 wf/cut 0.232938 6.621259842822526 1 2 19.863779528467578
pair_coeff 28 34 wf/cut 0.177574 6.403800703379438 1 2 19.211402110138312
pair_coeff 28 35 wf/cut 0.061873 5.7993639894571976 1 2 17.39809196837159
pair_coeff 28 36 wf/cut 0.001252 6.258048801889918 1 2 18.774146405669754
pair_coeff 28 37 wf/cut 0.108154 6.053088642675554 1 2 18.159265928026663
pair_coeff 28 38 wf/cut 0.067931 5.9963870692049515 1 2 17.989161207614856
pair_coeff 28 39 wf/cut 0.064626 5.955407688864699 1 2 17.866223066594095
pair_coeff 28 40 wf/cut 0.040635 6.331503643570952 1 2 18.994510930712856
pair_coeff 29 29 wf/cut 0.293553 6.734901221669089 1 2 20.204703665007266
pair_coeff 29 30 wf/cut 0.149152 6.425928662140226 1 2 19.277785986420678
pair_coeff 29 31 wf/cut 0.150644 6.592808608254519 1 2 19.77842582476356
pair_coeff 29 32 wf/cut 0.216693 6.5069139355650485 1 2 19.520741806695145
pair_coeff 29 33 wf/cut 0.339277 6.901174934210456 1 2 20.703524802631367
pair_coeff 29 34 wf/cut 0.283913 6.682893550119813 1 2 20.048680650359437
pair_coeff 29 35 wf/cut 0.168212 6.070294170144763 1 2 18.21088251043429
pair_coeff 29 36 wf/cut 0.275379 6.53700493974828 1 2 19.61101481924484
pair_coeff 29 37 wf/cut 0.214493 6.329613164394258 1 2 18.988839493182773
pair_coeff 29 38 wf/cut 0.174270 6.268290266697097 1 2 18.80487080009129
pair_coeff 29 39 wf/cut 0.170965 6.226677571408917 1 2 18.68003271422675
pair_coeff 29 40 wf/cut 0.146974 6.593018960515583 1 2 19.77905688154675
pair_coeff 30 31 wf/cut 0.006243 6.436867325811939 1 2 19.310601977435816
pair_coeff 30 32 wf/cut 0.072292 6.2043654791136875 1 2 18.613096437341063
pair_coeff 30 33 wf/cut 0.194875 6.590992227279316 1 2 19.77297668183795
pair_coeff 30 34 wf/cut 0.139512 6.374322689731052 1 2 19.122968069193156
pair_coeff 30 35 wf/cut 0.023810 5.794680761693587 1 2 17.38404228508076
pair_coeff 30 36 wf/cut 0.130978 6.228734363673756 1 2 18.68620309102127
pair_coeff 30 37 wf/cut 0.070092 6.027237821338098 1 2 18.081713464014296
pair_coeff 30 38 wf/cut 0.029868 5.985230649978958 1 2 17.955691949936874
pair_coeff 30 39 wf/cut 0.026564 5.947631895281645 1 2 17.842895685844933
pair_coeff 31 31 wf/cut 0.007734 6.567831037515117 1 2 19.703493112545353
pair_coeff 31 32 wf/cut 0.073783 6.371180012524027 1 2 19.11354003757208
pair_coeff 31 33 wf/cut 0.196367 6.757844212311977 1 2 20.273532636935933
pair_coeff 31 34 wf/cut 0.141003 6.541152469250684 1 2 19.623457407752053
pair_coeff 31 35 wf/cut 0.025302 5.958948966149641 1 2 17.87684689844892
pair_coeff 31 36 wf/cut 0.132469 6.395617784448214 1 2 19.18685335334464
pair_coeff 31 37 wf/cut 0.071583 6.194052355515639 1 2 18.58215706654692
pair_coeff 31 38 wf/cut 0.031360 6.150442231391871 1 2 18.451326694175613
pair_coeff 31 39 wf/cut 0.028055 6.1123674095484715 1 2 18.337102228645414
pair_coeff 32 32 wf/cut 0.139832 6.280338147956703 1 2 18.841014443870108
pair_coeff 32 33 wf/cut 0.262416 6.672807379130834 1 2 20.018422137392502
pair_coeff 32 34 wf/cut 0.207052 6.454996866244807 1 2 19.364990598734423
pair_coeff 32 35 wf/cut 0.091351 5.846082838683163 1 2 17.53824851604949
pair_coeff 32 36 wf/cut 0.198518 6.309181376440496 1 2 18.92754412932149
pair_coeff 32 37 wf/cut 0.137633 6.103047888395006 1 2 18.30914366518502
pair_coeff 32 38 wf/cut 0.097409 6.043739153604026 1 2 18.131217460812078
pair_coeff 32 39 wf/cut 0.094104 6.002359484884067 1 2 18.007078454652202
pair_coeff 32 40 wf/cut 0.070113 6.372029116976672 1 2 19.116087350930016
pair_coeff 33 33 wf/cut 0.385000 7.067563273437359 1 2 21.202689820312077
pair_coeff 33 34 wf/cut 0.329636 6.849136659067028 1 2 20.547409977201085
pair_coeff 33 35 wf/cut 0.213935 6.235761878631987 1 2 18.70728563589596
pair_coeff 33 36 wf/cut 0.321102 6.703247958074066 1 2 20.109743874222197
pair_coeff 33 37 wf/cut 0.260216 6.49554680247315 1 2 19.48664040741945
pair_coeff 33 38 wf/cut 0.219993 6.433800819712532 1 2 19.3014024591376
pair_coeff 33 39 wf/cut 0.216688 6.3921696304391835 1 2 19.17650889131755
pair_coeff 33 40 wf/cut 0.192697 6.757970683221281 1 2 20.273912049663842
pair_coeff 34 34 wf/cut 0.274272 6.630885251270346 1 2 19.892655753811038
pair_coeff 34 35 wf/cut 0.158571 6.018506537122348 1 2 18.055519611367043
pair_coeff 34 36 wf/cut 0.265738 6.485029527646095 1 2 19.455088582938284
pair_coeff 34 37 wf/cut 0.204852 6.27772691468288 1 2 18.83318074404864
pair_coeff 34 38 wf/cut 0.164629 6.216488307385695 1 2 18.649464922157083
pair_coeff 34 39 wf/cut 0.161324 6.17490549231641 1 2 18.52471647694923
pair_coeff 34 40 wf/cut 0.137333 6.5414250271565235 1 2 19.62427508146957
pair_coeff 35 35 wf/cut 0.042870 5.4194558891562785 1 2 16.258367667468836
pair_coeff 35 36 wf/cut 0.150037 5.8728226163551005 1 2 17.6184678490653
pair_coeff 35 37 wf/cut 0.089151 5.6688305293155095 1 2 17.006491587946527
pair_coeff 35 38 wf/cut 0.048928 5.615420402551611 1 2 16.846261207654834
pair_coeff 35 39 wf/cut 0.045623 5.575027083025114 1 2 16.725081249075345
pair_coeff 35 40 wf/cut 0.021632 5.967018638311549 1 2 17.901055914934645
pair_coeff 36 36 wf/cut 0.019052 6.339149093005715 1 2 19.017447279017144
pair_coeff 36 37 wf/cut 0.196319 6.131909094415353 1 2 18.39572728324606
pair_coeff 36 38 wf/cut 0.156095 6.07081046198845 1 2 18.21243138596535
pair_coeff 36 39 wf/cut 0.152791 6.029219810679759 1 2 18.087659432039278
pair_coeff 36 40 wf/cut 0.128800 6.395882535691026 1 2 19.187647607073078
pair_coeff 37 37 wf/cut 0.135433 5.925773208988131 1 2 17.777319626964392
pair_coeff 37 38 wf/cut 0.095209 5.866481553533799 1 2 17.599444660601396
pair_coeff 37 39 wf/cut 0.091905 5.82512551794993 1 2 17.47537655384979
pair_coeff 37 40 wf/cut 0.067914 6.194931490620908 1 2 18.584794471862722
pair_coeff 38 38 wf/cut 0.054986 5.811826808320624 1 2 17.43548042496187
pair_coeff 38 39 wf/cut 0.051681 5.771184604473262 1 2 17.313553813419787
pair_coeff 38 40 wf/cut 0.027690 6.155796177211015 1 2 18.467388531633045
pair_coeff 39 39 wf/cut 0.048377 5.730699270006254 1 2 17.192097810018762
pair_coeff 39 40 wf/cut 0.024386 6.119051758363574 1 2 18.357155275090722
pair_coeff 40 40 wf/cut 0.000395 6.921680089176746 1 11 20.76504026753024
pair_coeff 20 40 wf/cut 0.000395 6.921680089176746 1 11 20.76504026753024
pair_coeff 20 20 wf/cut 0.000395 6.921680089176746 1 11 20.76504026753024
pair_coeff 10 20 wf/cut 0.002986 6.718011650959061 1 4 20.154034952877183
pair_coeff 10 40 wf/cut 0.002986 6.718011650959061 1 4 20.154034952877183
pair_coeff 20 30 wf/cut 0.002573 6.745752996427961 1 4 20.237258989283884
pair_coeff 20 31 wf/cut 0.004064 6.883184689300606 1 4 20.649554067901818
pair_coeff 30 40 wf/cut 0.002573 6.745752996427961 1 4 20.237258989283884
pair_coeff 31 40 wf/cut 0.004064 6.883184689300606 1 4 20.649554067901818
pair_coeff 3 3 coul/debye 35.
pair_coeff 3 5 coul/debye 35.
pair_coeff 3 7 coul/debye 35.
pair_coeff 3 8 coul/debye 35.
pair_coeff 3 16 coul/debye 35.
pair_coeff 3 23 coul/debye 35.
pair_coeff 3 25 coul/debye 35.
pair_coeff 3 36 coul/debye 35.
pair_coeff 5 5 coul/debye 35.
pair_coeff 5 7 coul/debye 35.
pair_coeff 5 8 coul/debye 35.
pair_coeff 5 16 coul/debye 35.
pair_coeff 5 23 coul/debye 35.
pair_coeff 5 25 coul/debye 35.
pair_coeff 5 27 coul/debye 35.
pair_coeff 5 28 coul/debye 35.
pair_coeff 5 36 coul/debye 35.
pair_coeff 7 7 coul/debye 35.
pair_coeff 7 8 coul/debye 35.
pair_coeff 7 16 coul/debye 35.
pair_coeff 7 23 coul/debye 35.
pair_coeff 7 25 coul/debye 35.
pair_coeff 7 27 coul/debye 35.
pair_coeff 7 28 coul/debye 35.
pair_coeff 7 36 coul/debye 35.
pair_coeff 8 8 coul/debye 35.
pair_coeff 8 16 coul/debye 35.
pair_coeff 8 23 coul/debye 35.
pair_coeff 8 25 coul/debye 35.
pair_coeff 8 27 coul/debye 35.
pair_coeff 8 28 coul/debye 35.
pair_coeff 8 36 coul/debye 35.
pair_coeff 16 16 coul/debye 35.
pair_coeff 16 23 coul/debye 35.
pair_coeff 16 25 coul/debye 35.
pair_coeff 16 27 coul/debye 35.
pair_coeff 16 28 coul/debye 35.
pair_coeff 16 36 coul/debye 35.
pair_coeff 23 23 coul/debye 35.
pair_coeff 23 25 coul/debye 35.
pair_coeff 23 36 coul/debye 35.
pair_coeff 25 25 coul/debye 35.
pair_coeff 25 27 coul/debye 35.
pair_coeff 25 28 coul/debye 35.
pair_coeff 25 36 coul/debye 35.
pair_coeff 27 27 coul/debye 35.
pair_coeff 27 28 coul/debye 35.
pair_coeff 27 36 coul/debye 35.
pair_coeff 28 28 coul/debye 35.
pair_coeff 28 36 coul/debye 35.
pair_coeff 36 36 coul/debye 35.
pair_coeff 3 27 coul/debye 35.
pair_coeff 3 28 coul/debye 35.
pair_coeff 23 27 coul/debye 35.
pair_coeff 23 28 coul/debye 35.

special_bonds fene
Finding 1-2 1-3 1-4 neighbors ...
  special bond factors lj:    0        1        1       
  special bond factors coul:  0        1        1       
     2 = max # of 1-2 neighbors
     6 = max # of special neighbors
  special bonds CPU = 0.000 seconds
neighbor  3.5 multi
neigh_modify  every 10 delay 0

comm_style    tiled

timer timeout 35:50:00
New timer settings: style=normal  mode=nosync  timeout=11:50:00

velocity      all create $T 494211
velocity      all create 380 494211
fix           fxnve   all nve
fix           fxlange all langevin $T $T 40000.0 32784
fix           fxlange all langevin 380 $T 40000.0 32784
fix           fxlange all langevin 380 380 40000.0 32784

dump          1 all custom 100000 $d-$T.xyz id mol type q xu yu zu
dump          1 all custom 100000 TIA_WT-$T.xyz id mol type q xu yu zu
dump          1 all custom 100000 TIA_WT-380.xyz id mol type q xu yu zu
dump_modify   1 sort id

#compute       rad all gyration
#compute       dis all pair/local dist
#compute       maximo all reduce max c_dis
#compute       mean all reduce ave c_dis

thermo        1000000
thermo_style  custom step pe temp  press ke lx ly lz pzz  spcpu density
thermo_modify flush yes

restart      10000000 restart$T
restart      10000000 restart380

####Minimization

timestep 0.01
run 2000
Neighbor list info ...
  update every 10 steps, delay 0 steps, check yes
  max neighbors/atom: 2000, page size: 100000
  master list distance cutoff = 38.5
  ghost atom cutoff = 38.5
  binsize = 8.7926654, bins = 35 35 35
  2 neighbor lists, perpetual/occasional/extra = 2 0 0
  (1) pair wf/cut, perpetual
      attributes: half, newton on
      pair build: half/multi/newton
      stencil: half/multi/3d/newton
      bin: standard
  (2) pair coul/debye, perpetual, skip from (1)
      attributes: half, newton on
      pair build: skip
      stencil: none
      bin: none
Per MPI rank memory allocation (min/avg/max) = 8.891 | 8.953 | 9.133 Mbytes
Step PotEng Temp Press KinEng Lx Ly Lz Pzz S/CPU Density 
       0   -13.356653          380   0.44267106    108.73995          300          300          300   0.32475891            0 0.00066940445 
    2000   -11.105159    372.24835    0.4219635    106.52176          300          300          300   0.32313624    43576.732 0.00066940445 
Loop time of 0.045913 on 6 procs for 2000 steps with 97 atoms

Performance: 37.636 ns/day, 0.638 hours/ns, 43560.665 timesteps/s
99.7% CPU use with 6 MPI tasks x no OpenMP threads

MPI task timing breakdown:
Section |  min time  |  avg time  |  max time  |%varavg| %total
---------------------------------------------------------------
Pair    | 0.00055718 | 0.0033261  | 0.016789   |  10.4 |  7.24
Bond    | 6.7711e-05 | 0.00042613 | 0.0020831  |   0.0 |  0.93
Neigh   | 0          | 0          | 0          |   0.0 |  0.00
Comm    | 0.015727   | 0.037142   | 0.042165   |   5.0 | 80.90
Output  | 2.1935e-05 | 2.8928e-05 | 3.8147e-05 |   0.0 |  0.06
Modify  | 0.00023723 | 0.0019885  | 0.010313   |   8.3 |  4.33
Other   |            | 0.003002   |            |       |  6.54

Nlocal:        16.1667 ave          96 max           0 min
Histogram: 5 0 0 0 0 0 0 0 0 1
Nghost:        39.5000 ave          57 max           0 min
Histogram: 1 0 0 0 1 0 0 0 1 3
Neighs:        73.5000 ave         436 max           0 min
Histogram: 5 0 0 0 0 0 0 0 0 1

Total # of neighbors = 441
Ave neighs/atom = 4.5463918
Ave special neighs/atom = 1.9793814
Neighbor list builds = 0
Dangerous builds = 0

timestep 0.1
run 2000
Per MPI rank memory allocation (min/avg/max) = 8.891 | 8.953 | 9.133 Mbytes
Step PotEng Temp Press KinEng Lx Ly Lz Pzz S/CPU Density 
    2000   -11.105159    372.24835    0.4219635    106.52176          300          300          300   0.32313624            0 0.00066940445 
    4000    6.9663141    312.77086  -0.18562753     89.50181          300          300          300  -0.12612738     43205.95 0.00066940445 
Loop time of 0.0463059 on 6 procs for 2000 steps with 97 atoms

Performance: 373.171 ns/day, 0.064 hours/ns, 43191.045 timesteps/s
99.8% CPU use with 6 MPI tasks x no OpenMP threads

MPI task timing breakdown:
Section |  min time  |  avg time  |  max time  |%varavg| %total
---------------------------------------------------------------
Pair    | 0.00057673 | 0.0033261  | 0.016739   |  10.4 |  7.18
Bond    | 6.938e-05  | 0.00042264 | 0.0020747  |   0.0 |  0.91
Neigh   | 0          | 0          | 0          |   0.0 |  0.00
Comm    | 0.016229   | 0.037535   | 0.042515   |   4.9 | 81.06
Output  | 1.9789e-05 | 2.6743e-05 | 3.4809e-05 |   0.0 |  0.06
Modify  | 0.0002346  | 0.0019797  | 0.010253   |   8.3 |  4.28
Other   |            | 0.003016   |            |       |  6.51

Nlocal:        16.1667 ave          96 max           0 min
Histogram: 5 0 0 0 0 0 0 0 0 1
Nghost:        39.5000 ave          57 max           0 min
Histogram: 1 0 0 0 1 0 0 0 1 3
Neighs:        73.5000 ave         436 max           0 min
Histogram: 5 0 0 0 0 0 0 0 0 1

Total # of neighbors = 441
Ave neighs/atom = 4.5463918
Ave special neighs/atom = 1.9793814
Neighbor list builds = 0
Dangerous builds = 0

timestep 1
run 2000
Per MPI rank memory allocation (min/avg/max) = 8.891 | 8.953 | 9.133 Mbytes
Step PotEng Temp Press KinEng Lx Ly Lz Pzz S/CPU Density 
    4000    6.9663141    312.77086  -0.18562753     89.50181          300          300          300  -0.12612738            0 0.00066940445 
    6000    14.266177    317.76239  -0.17074407    90.930175          300          300          300  0.040662294    43310.571 0.00066940445 
Loop time of 0.0461927 on 6 procs for 2000 steps with 97 atoms

Performance: 3740.849 ns/day, 0.006 hours/ns, 43296.861 timesteps/s
99.8% CPU use with 6 MPI tasks x no OpenMP threads

MPI task timing breakdown:
Section |  min time  |  avg time  |  max time  |%varavg| %total
---------------------------------------------------------------
Pair    | 0.00054622 | 0.0032624  | 0.016269   |  10.2 |  7.06
Bond    | 6.6996e-05 | 0.00042172 | 0.0020523  |   0.0 |  0.91
Neigh   | 0.00033236 | 0.00033645 | 0.00034094 |   0.0 |  0.73
Comm    | 0.016266   | 0.037152   | 0.042124   |   4.9 | 80.43
Output  | 2.0981e-05 | 2.7617e-05 | 3.6001e-05 |   0.0 |  0.06
Modify  | 0.00024104 | 0.0019983  | 0.010245   |   8.3 |  4.33
Other   |            | 0.002994   |            |       |  6.48

Nlocal:        16.1667 ave          95 max           0 min
Histogram: 5 0 0 0 0 0 0 0 0 1
Nghost:        38.8333 ave          58 max           0 min
Histogram: 1 0 0 0 1 0 0 0 3 1
Neighs:        74.0000 ave         432 max           0 min
Histogram: 5 0 0 0 0 0 0 0 0 1

Total # of neighbors = 444
Ave neighs/atom = 4.5773196
Ave special neighs/atom = 1.9793814
Neighbor list builds = 6
Dangerous builds = 0

####Collapse the IDR

timestep 10
run 1000000
Per MPI rank memory allocation (min/avg/max) = 8.892 | 8.974 | 9.133 Mbytes
Step PotEng Temp Press KinEng Lx Ly Lz Pzz S/CPU Density 
    6000    14.266177    317.76239  -0.17074407    90.930175          300          300          300  0.040662294            0 0.00066940445 
 1000000    17.785363    376.89982   -0.2783849    107.85281          300          300          300  -0.13596024    24939.889 0.00066940445 
 1006000    12.614253     350.2313 -0.074752598    100.22141          300          300          300 -0.085818137    20064.744 0.00066940445 
Loop time of 40.1549 on 6 procs for 1000000 steps with 97 atoms

Performance: 21516.681 ns/day, 0.001 hours/ns, 24903.566 timesteps/s
99.7% CPU use with 6 MPI tasks x no OpenMP threads

MPI task timing breakdown:
Section |  min time  |  avg time  |  max time  |%varavg| %total
---------------------------------------------------------------
Pair    | 0.8111     | 4.7328     | 10.043     | 139.4 | 11.79
Bond    | 0.061626   | 0.21253    | 0.40774    |  23.9 |  0.53
Neigh   | 2.1422     | 2.157      | 2.1798     |   0.9 |  5.37
Comm    | 24.503     | 30.81      | 35.455     |  64.6 | 76.73
Output  | 0.0018034  | 0.0020526  | 0.0031199  |   1.1 |  0.01
Modify  | 0.2305     | 1.0067     | 1.9705     |  55.5 |  2.51
Other   |            | 1.234      |            |       |  3.07

Nlocal:        16.1667 ave          97 max           0 min
Histogram: 5 0 0 0 0 0 0 0 0 1
Nghost:        19.5000 ave          50 max           0 min
Histogram: 3 0 0 0 0 1 0 0 1 1
Neighs:        245.167 ave        1471 max           0 min
Histogram: 5 0 0 0 0 0 0 0 0 1

Total # of neighbors = 1471
Ave neighs/atom = 15.164948
Ave special neighs/atom = 1.9793814
Neighbor list builds = 28770
Dangerous builds = 0

####Replicate initial system

replicate 4 4 4
Replicating atoms ...
  orthogonal box = (0.0000000 0.0000000 0.0000000) to (1200.0000 1200.0000 1200.0000)
  1 by 2 by 3 MPI processor grid
  6208 atoms
  6144 bonds
Finding 1-2 1-3 1-4 neighbors ...
  special bond factors lj:    0        1        1       
  special bond factors coul:  0        1        1       
     2 = max # of 1-2 neighbors
     6 = max # of special neighbors
  special bonds CPU = 0.000 seconds
  replicate CPU = 0.001 seconds

run 1
Per MPI rank memory allocation (min/avg/max) = 11.63 | 11.64 | 11.67 Mbytes
Step PotEng Temp Press KinEng Lx Ly Lz Pzz S/CPU Density 
 1006000    807.31217    346.67651 -0.074752598      6414.17         1200         1200         1200 -0.085818137            0 0.00066940445 
 1006001    839.20634    344.71619 -0.072257041    6377.9004         1200         1200         1200 -0.050804256    1428.5777 0.00066940445 
Loop time of 0.000711004 on 6 procs for 1 steps with 6208 atoms

Performance: 1215.183 ns/day, 0.020 hours/ns, 1406.462 timesteps/s
99.4% CPU use with 6 MPI tasks x no OpenMP threads

MPI task timing breakdown:
Section |  min time  |  avg time  |  max time  |%varavg| %total
---------------------------------------------------------------
Pair    | 0.00027394 | 0.00036585 | 0.00054717 |   0.0 | 51.46
Bond    | 1.2875e-05 | 1.8279e-05 | 2.7895e-05 |   0.0 |  2.57
Neigh   | 0          | 0          | 0          |   0.0 |  0.00
Comm    | 1.9073e-05 | 0.00021072 | 0.00030804 |   0.0 | 29.64
Output  | 2.8849e-05 | 5.4042e-05 | 6.8903e-05 |   0.0 |  7.60
Modify  | 4.077e-05  | 5.4359e-05 | 8.0824e-05 |   0.0 |  7.65
Other   |            | 7.749e-06  |            |       |  1.09

Nlocal:        1034.67 ave        1552 max         776 min
Histogram: 4 0 0 0 0 0 0 0 0 2
Nghost:        409.333 ave         628 max         200 min
Histogram: 2 0 0 0 2 0 0 0 0 2
Neighs:        15690.7 ave       23536 max       11768 min
Histogram: 4 0 0 0 0 0 0 0 0 2

Total # of neighbors = 94144
Ave neighs/atom = 15.164948
Ave special neighs/atom = 1.9793814
Neighbor list builds = 0
Dangerous builds = 0

####Smaller box size

#change_box all x final 0 300 y final 0 300 z final 0 300 remap

####Loop to compress

variable myDensity equal density
label loop
variable a loop 1000
change_box all x scale 0.95 y scale 0.95 z scale 0.95 remap
Changing box ...
  orthogonal box = (30.000000 0.0000000 0.0000000) to (1170.0000 1200.0000 1200.0000)
  orthogonal box = (30.000000 30.000000 0.0000000) to (1170.0000 1170.0000 1200.0000)
  orthogonal box = (30.000000 30.000000 30.000000) to (1170.0000 1170.0000 1170.0000)
run 8000
Per MPI rank memory allocation (min/avg/max) = 11.63 | 11.64 | 11.67 Mbytes
Step PotEng Temp Press KinEng Lx Ly Lz Pzz S/CPU Density 
 1006001    2621.3031    344.71619    1.5626344    6377.9004         1140         1140         1140    1.3620028            0 0.0007807604 
 1014001     983.7504    386.50723 -0.023485475    7151.1134         1140         1140         1140 -0.035627295    1435.9734 0.0007807604 
Loop time of 5.57125 on 6 procs for 8000 steps with 6208 atoms

Performance: 1240.656 ns/day, 0.019 hours/ns, 1435.944 timesteps/s
99.7% CPU use with 6 MPI tasks x no OpenMP threads

MPI task timing breakdown:
Section |  min time  |  avg time  |  max time  |%varavg| %total
---------------------------------------------------------------
Pair    | 1.7806     | 2.5769     | 3.9995     |  60.0 | 46.25
Bond    | 0.064308   | 0.086345   | 0.12931    |  10.2 |  1.55
Neigh   | 0.50907    | 0.51156    | 0.51417    |   0.3 |  9.18
Comm    | 0.26737    | 1.9013     | 2.8072     |  80.7 | 34.13
Output  | 4.2915e-05 | 8.6784e-05 | 0.00018501 |   0.0 |  0.00
Modify  | 0.32513    | 0.43433    | 0.64792    |  22.9 |  7.80
Other   |            | 0.06077    |            |       |  1.09

Nlocal:        1034.67 ave        1554 max         749 min
Histogram: 4 0 0 0 0 0 0 0 0 2
Nghost:        564.000 ave         929 max         234 min
Histogram: 1 0 2 0 1 0 0 0 1 1
Neighs:        15638.0 ave       25354 max        8709 min
Histogram: 1 1 2 0 0 0 0 0 0 2

Total # of neighbors = 93828
Ave neighs/atom = 15.114046
Ave special neighs/atom = 1.9793814
Neighbor list builds = 339
Dangerous builds = 0

if "${myDensity} > 1.0" then "jump SELF break"

next a
jump SELF loop
variable a loop 1000
change_box all x scale 0.95 y scale 0.95 z scale 0.95 remap
Changing box ...
  orthogonal box = (58.500000 30.000000 30.000000) to (1141.5000 1170.0000 1170.0000)
  orthogonal box = (58.500000 58.500000 30.000000) to (1141.5000 1141.5000 1170.0000)
  orthogonal box = (58.500000 58.500000 58.500000) to (1141.5000 1141.5000 1141.5000)
run 8000
Per MPI rank memory allocation (min/avg/max) = 11.63 | 11.64 | 11.67 Mbytes
Step PotEng Temp Press KinEng Lx Ly Lz Pzz S/CPU Density 
 1014001    2953.6855    386.50723     1.947445    7151.1134         1083         1083         1083    1.9328962            0 0.0009106405 
 1022001    1103.4909    385.23497 -0.0096307772    7127.5742         1083         1083         1083 -0.0085005993    1450.5898 0.0009106405 
Loop time of 5.51511 on 6 procs for 8000 steps with 6208 atoms

Performance: 1253.285 ns/day, 0.019 hours/ns, 1450.561 timesteps/s
99.7% CPU use with 6 MPI tasks x no OpenMP threads

MPI task timing breakdown:
Section |  min time  |  avg time  |  max time  |%varavg| %total
---------------------------------------------------------------
Pair    | 1.6962     | 2.4677     | 3.9908     |  59.2 | 44.74
Bond    | 0.061635   | 0.086359   | 0.1289     |   9.6 |  1.57
Neigh   | 0.5023     | 0.50523    | 0.5081     |   0.3 |  9.16
Comm    | 0.22726    | 1.9607     | 2.8286     |  76.5 | 35.55
Output  | 4.1008e-05 | 8.1142e-05 | 0.00017095 |   0.0 |  0.00
Modify  | 0.3127     | 0.43483    | 0.6453     |  21.6 |  7.88
Other   |            | 0.06021    |            |       |  1.09

Nlocal:        1034.67 ave        1508 max         752 min
Histogram: 1 3 0 0 0 0 0 0 0 2
Nghost:        622.333 ave        1059 max         307 min
Histogram: 2 0 1 1 0 0 0 0 1 1
Neighs:        15174.3 ave       23722 max       11100 min
Histogram: 3 1 0 0 0 0 1 0 0 1

Total # of neighbors = 91046
Ave neighs/atom = 14.665915
Ave special neighs/atom = 1.9793814
Neighbor list builds = 355
Dangerous builds = 0

if "${myDensity} > 1.0" then "jump SELF break"

next a
jump SELF loop
variable a loop 1000
change_box all x scale 0.95 y scale 0.95 z scale 0.95 remap
Changing box ...
  orthogonal box = (85.575000 58.500000 58.500000) to (1114.4250 1141.5000 1141.5000)
  orthogonal box = (85.575000 85.575000 58.500000) to (1114.4250 1114.4250 1141.5000)
  orthogonal box = (85.575000 85.575000 85.575000) to (1114.4250 1114.4250 1114.4250)
run 8000
Per MPI rank memory allocation (min/avg/max) = 11.63 | 11.65 | 11.67 Mbytes
Step PotEng Temp Press KinEng Lx Ly Lz Pzz S/CPU Density 
 1022001    3125.9264    385.23497    2.2918071    7127.5742      1028.85      1028.85      1028.85    2.3227925            0 0.0010621263 
 1030001    1006.8502    375.36509 -0.035352466    6944.9629      1028.85      1028.85      1028.85 -0.045151837     1526.502 0.0010621263 
Loop time of 5.24084 on 6 procs for 8000 steps with 6208 atoms

Performance: 1318.872 ns/day, 0.018 hours/ns, 1526.472 timesteps/s
99.7% CPU use with 6 MPI tasks x no OpenMP threads

MPI task timing breakdown:
Section |  min time  |  avg time  |  max time  |%varavg| %total
---------------------------------------------------------------
Pair    | 1.7868     | 2.4698     | 3.7896     |  50.9 | 47.13
Bond    | 0.062639   | 0.086324   | 0.12372    |   8.6 |  1.65
Neigh   | 0.45739    | 0.46029    | 0.46294    |   0.3 |  8.78
Comm    | 0.23163    | 1.7362     | 2.5034     |  70.2 | 33.13
Output  | 4.6968e-05 | 8.4241e-05 | 0.00016403 |   0.0 |  0.00
Modify  | 0.31721    | 0.43429    | 0.6187     |  19.3 |  8.29
Other   |            | 0.05389    |            |       |  1.03

Nlocal:        1034.67 ave        1477 max         753 min
Histogram: 2 1 1 0 0 0 0 0 1 1
Nghost:        693.500 ave        1113 max         427 min
Histogram: 2 1 0 1 0 0 0 1 0 1
Neighs:        15625.3 ave       23622 max       11568 min
Histogram: 3 1 0 0 0 0 0 0 1 1

Total # of neighbors = 93752
Ave neighs/atom = 15.101804
Ave special neighs/atom = 1.9793814
Neighbor list builds = 347
Dangerous builds = 0

if "${myDensity} > 1.0" then "jump SELF break"

next a
jump SELF loop
variable a loop 1000
change_box all x scale 0.95 y scale 0.95 z scale 0.95 remap
Changing box ...
  orthogonal box = (111.29625 85.575000 85.575000) to (1088.7037 1114.4250 1114.4250)
  orthogonal box = (111.29625 111.29625 85.575000) to (1088.7037 1088.7037 1114.4250)
  orthogonal box = (111.29625 111.29625 111.29625) to (1088.7037 1088.7037 1088.7037)
run 8000
Per MPI rank memory allocation (min/avg/max) = 11.63 | 11.65 | 11.67 Mbytes
Step PotEng Temp Press KinEng Lx Ly Lz Pzz S/CPU Density 
 1030001    2985.4674    375.36509    2.6412966    6944.9629     977.4075     977.4075     977.4075    2.6190455            0 0.0012388118 
 1038001    1057.2197    387.32342 -0.032776726    7166.2145     977.4075     977.4075     977.4075 0.0084670818     1553.866 0.0012388118 
Loop time of 5.14858 on 6 procs for 8000 steps with 6208 atoms

Performance: 1342.507 ns/day, 0.018 hours/ns, 1553.828 timesteps/s
99.7% CPU use with 6 MPI tasks x no OpenMP threads

MPI task timing breakdown:
Section |  min time  |  avg time  |  max time  |%varavg| %total
---------------------------------------------------------------
Pair    | 1.73       | 2.4905     | 3.721      |  48.8 | 48.37
Bond    | 0.064706   | 0.086467   | 0.12029    |   7.8 |  1.68
Neigh   | 0.4433     | 0.44591    | 0.44878    |   0.3 |  8.66
Comm    | 0.245      | 1.6409     | 2.5162     |  68.8 | 31.87
Output  | 3.9101e-05 | 7.7566e-05 | 0.00017118 |   0.0 |  0.00
Modify  | 0.32405    | 0.43443    | 0.59976    |  17.3 |  8.44
Other   |            | 0.05035    |            |       |  0.98

Nlocal:        1034.67 ave        1393 max         726 min
Histogram: 2 1 0 0 0 1 0 0 0 2
Nghost:        755.000 ave        1078 max         542 min
Histogram: 2 0 1 1 0 0 0 0 1 1
Neighs:        15407.0 ave       22384 max       10492 min
Histogram: 2 1 0 1 0 0 0 0 0 2

Total # of neighbors = 92442
Ave neighs/atom = 14.890786
Ave special neighs/atom = 1.9793814
Neighbor list builds = 351
Dangerous builds = 0

if "${myDensity} > 1.0" then "jump SELF break"

next a
jump SELF loop
variable a loop 1000
change_box all x scale 0.95 y scale 0.95 z scale 0.95 remap
Changing box ...
  orthogonal box = (135.73144 111.29625 111.29625) to (1064.2686 1088.7037 1088.7037)
  orthogonal box = (135.73144 135.73144 111.29625) to (1064.2686 1064.2686 1088.7037)
  orthogonal box = (135.73144 135.73144 135.73144) to (1064.2686 1064.2686 1064.2686)
run 8000
Per MPI rank memory allocation (min/avg/max) = 11.63 | 11.65 | 11.67 Mbytes
Step PotEng Temp Press KinEng Lx Ly Lz Pzz S/CPU Density 
 1038001    3038.2747    387.32342    3.0991089    7166.2145    928.53712    928.53712    928.53712    3.1775791            0 0.0014448891 
 1046001    1086.4426    388.87921  0.049763701    7194.9996    928.53712    928.53712    928.53712  0.020932594    1622.0811 0.0014448891 
Loop time of 4.93197 on 6 procs for 8000 steps with 6208 atoms

Performance: 1401.468 ns/day, 0.017 hours/ns, 1622.070 timesteps/s
99.6% CPU use with 6 MPI tasks x no OpenMP threads

MPI task timing breakdown:
Section |  min time  |  avg time  |  max time  |%varavg| %total
---------------------------------------------------------------
Pair    | 1.4803     | 2.4551     | 3.4304     |  45.4 | 49.78
Bond    | 0.057368   | 0.08645    | 0.11516    |   7.9 |  1.75
Neigh   | 0.42737    | 0.42966    | 0.43284    |   0.3 |  8.71
Comm    | 0.36151    | 1.4724     | 2.6028     |  67.7 | 29.85
Output  | 4.0054e-05 | 6.3578e-05 | 7.7009e-05 |   0.0 |  0.00
Modify  | 0.28659    | 0.43806    | 0.57618    |  17.8 |  8.88
Other   |            | 0.05029    |            |       |  1.02

Nlocal:        1034.67 ave        1379 max         685 min
Histogram: 1 1 1 0 0 0 0 1 1 1
Nghost:        803.667 ave        1023 max         608 min
Histogram: 2 0 0 0 1 1 1 0 0 1
Neighs:        15642.3 ave       22776 max        8924 min
Histogram: 1 0 1 1 0 1 0 1 0 1

Total # of neighbors = 93854
Ave neighs/atom = 15.118235
Ave special neighs/atom = 1.9793814
Neighbor list builds = 355
Dangerous builds = 0

if "${myDensity} > 1.0" then "jump SELF break"

next a
jump SELF loop
variable a loop 1000
change_box all x scale 0.95 y scale 0.95 z scale 0.95 remap
Changing box ...
  orthogonal box = (158.94487 135.73144 135.73144) to (1041.0551 1064.2686 1064.2686)
  orthogonal box = (158.94487 158.94487 135.73144) to (1041.0551 1041.0551 1064.2686)
  orthogonal box = (158.94487 158.94487 158.94487) to (1041.0551 1041.0551 1041.0551)
run 8000
Per MPI rank memory allocation (min/avg/max) = 11.63 | 11.65 | 11.67 Mbytes
Step PotEng Temp Press KinEng Lx Ly Lz Pzz S/CPU Density 
 1046001    3217.8455    388.87921    3.7126857    7194.9996    882.11027    882.11027    882.11027    3.5791848            0 0.0016852475 
 1054001    1093.9909    386.10048 -0.060923576    7143.5878    882.11027    882.11027    882.11027 -0.058081777    1647.2837 0.0016852475 
Loop time of 4.8566 on 6 procs for 8000 steps with 6208 atoms

Performance: 1423.218 ns/day, 0.017 hours/ns, 1647.243 timesteps/s
99.7% CPU use with 6 MPI tasks x no OpenMP threads

MPI task timing breakdown:
Section |  min time  |  avg time  |  max time  |%varavg| %total
---------------------------------------------------------------
Pair    | 1.4201     | 2.3939     | 3.4227     |  45.7 | 49.29
Bond    | 0.057008   | 0.086496   | 0.11658    |   7.7 |  1.78
Neigh   | 0.4206     | 0.42312    | 0.42537    |   0.2 |  8.71
Comm    | 0.29773    | 1.4702     | 2.5967     |  67.2 | 30.27
Output  | 4.2915e-05 | 7.8837e-05 | 0.00014806 |   0.0 |  0.00
Modify  | 0.28465    | 0.43404    | 0.57992    |  16.9 |  8.94
Other   |            | 0.04872    |            |       |  1.00

Nlocal:        1034.67 ave        1390 max         602 min
Histogram: 1 0 1 1 0 0 0 1 0 2
Nghost:        865.167 ave        1112 max         749 min
Histogram: 2 1 1 0 0 1 0 0 0 1
Neighs:        15157.8 ave       21917 max        8869 min
Histogram: 1 1 1 0 0 0 0 2 0 1

Total # of neighbors = 90947
Ave neighs/atom = 14.649968
Ave special neighs/atom = 1.9793814
Neighbor list builds = 360
Dangerous builds = 0

if "${myDensity} > 1.0" then "jump SELF break"

next a
jump SELF loop
variable a loop 1000
change_box all x scale 0.95 y scale 0.95 z scale 0.95 remap
Changing box ...
  orthogonal box = (180.99762 158.94487 158.94487) to (1019.0024 1041.0551 1041.0551)
  orthogonal box = (180.99762 180.99762 158.94487) to (1019.0024 1019.0024 1041.0551)
  orthogonal box = (180.99762 180.99762 180.99762) to (1019.0024 1019.0024 1019.0024)
run 8000
Per MPI rank memory allocation (min/avg/max) = 11.63 | 11.65 | 11.67 Mbytes
Step PotEng Temp Press KinEng Lx Ly Lz Pzz S/CPU Density 
 1054001    3053.1714    386.10048    4.1981473    7143.5878    838.00476    838.00476    838.00476    4.1778643            0 0.0019655898 
 1062001    1026.5952    387.04612  0.076811583    7161.0839    838.00476    838.00476    838.00476   0.14155254    1692.0453 0.0019655898 
Loop time of 4.72812 on 6 procs for 8000 steps with 6208 atoms

Performance: 1461.892 ns/day, 0.016 hours/ns, 1692.005 timesteps/s
99.6% CPU use with 6 MPI tasks x no OpenMP threads

MPI task timing breakdown:
Section |  min time  |  avg time  |  max time  |%varavg| %total
---------------------------------------------------------------
Pair    | 1.3194     | 2.4153     | 3.3188     |  44.8 | 51.08
Bond    | 0.048752   | 0.08659    | 0.11688    |   8.5 |  1.83
Neigh   | 0.39831    | 0.40142    | 0.40468    |   0.3 |  8.49
Comm    | 0.29924    | 1.3409     | 2.63       |  70.5 | 28.36
Output  | 3.7909e-05 | 7.4029e-05 | 0.0001421  |   0.0 |  0.00
Modify  | 0.2433     | 0.4338     | 0.57804    |  18.8 |  9.17
Other   |            | 0.05008    |            |       |  1.06

Nlocal:        1034.67 ave        1386 max         583 min
Histogram: 1 0 1 0 1 0 1 0 0 2
Nghost:        915.000 ave        1280 max         676 min
Histogram: 1 1 1 0 1 0 1 0 0 1
Neighs:        15417.2 ave       21816 max        8453 min
Histogram: 1 0 1 1 0 0 1 0 1 1

Total # of neighbors = 92503
Ave neighs/atom = 14.900612
Ave special neighs/atom = 1.9793814
Neighbor list builds = 353
Dangerous builds = 0

if "${myDensity} > 1.0" then "jump SELF break"

next a
jump SELF loop
variable a loop 1000
change_box all x scale 0.95 y scale 0.95 z scale 0.95 remap
Changing box ...
  orthogonal box = (201.94774 180.99762 180.99762) to (998.05226 1019.0024 1019.0024)
  orthogonal box = (201.94774 201.94774 180.99762) to (998.05226 998.05226 1019.0024)
  orthogonal box = (201.94774 201.94774 201.94774) to (998.05226 998.05226 998.05226)
run 8000
Per MPI rank memory allocation (min/avg/max) = 11.63 | 11.65 | 11.68 Mbytes
Step PotEng Temp Press KinEng Lx Ly Lz Pzz S/CPU Density 
 1062001    3168.7018    387.04612     5.051419    7161.0839    796.10452    796.10452    796.10452    5.1671936            0 0.0022925672 
 1070001    1083.9751    383.50038 0.0098757321    7095.4811    796.10452    796.10452    796.10452 -0.033794316     1681.108 0.0022925672 
Loop time of 4.75889 on 6 procs for 8000 steps with 6208 atoms

Performance: 1452.439 ns/day, 0.017 hours/ns, 1681.064 timesteps/s
99.7% CPU use with 6 MPI tasks x no OpenMP threads

MPI task timing breakdown:
Section |  min time  |  avg time  |  max time  |%varavg| %total
---------------------------------------------------------------
Pair    | 1.4994     | 2.5261     | 3.3646     |  40.7 | 53.08
Bond    | 0.053413   | 0.086406   | 0.11546    |   7.3 |  1.82
Neigh   | 0.38255    | 0.38535    | 0.38836    |   0.3 |  8.10
Comm    | 0.30092    | 1.2826     | 2.4787     |  66.5 | 26.95
Output  | 4.4823e-05 | 7.5658e-05 | 0.00015211 |   0.0 |  0.00
Modify  | 0.26777    | 0.4338     | 0.57935    |  16.2 |  9.12
Other   |            | 0.04453    |            |       |  0.94

Nlocal:        1034.67 ave        1383 max         714 min
Histogram: 1 0 1 1 1 0 0 1 0 1
Nghost:        939.667 ave        1124 max         783 min
Histogram: 2 1 0 0 0 1 0 0 0 2
Neighs:        15472.5 ave       21018 max        9667 min
Histogram: 1 0 0 1 1 1 0 1 0 1

Total # of neighbors = 92835
Ave neighs/atom = 14.954091
Ave special neighs/atom = 1.9793814
Neighbor list builds = 349
Dangerous builds = 0

if "${myDensity} > 1.0" then "jump SELF break"

next a
jump SELF loop
variable a loop 1000
change_box all x scale 0.95 y scale 0.95 z scale 0.95 remap
Changing box ...
  orthogonal box = (221.85035 201.94774 201.94774) to (978.14965 998.05226 998.05226)
  orthogonal box = (221.85035 221.85035 201.94774) to (978.14965 978.14965 998.05226)
  orthogonal box = (221.85035 221.85035 221.85035) to (978.14965 978.14965 978.14965)
run 8000
Per MPI rank memory allocation (min/avg/max) = 11.63 | 11.65 | 11.68 Mbytes
Step PotEng Temp Press KinEng Lx Ly Lz Pzz S/CPU Density 
 1070001    3174.4662    383.50038    5.8716941    7095.4811    756.29929    756.29929    756.29929    5.9619788            0 0.0026739375 
 1078001    1063.0913    386.42635  0.027067994     7149.617    756.29929    756.29929    756.29929  0.030981359    1729.4646 0.0026739375 
Loop time of 4.62574 on 6 procs for 8000 steps with 6208 atoms

Performance: 1494.247 ns/day, 0.016 hours/ns, 1729.452 timesteps/s
99.7% CPU use with 6 MPI tasks x no OpenMP threads

MPI task timing breakdown:
Section |  min time  |  avg time  |  max time  |%varavg| %total
---------------------------------------------------------------
Pair    | 1.4894     | 2.4238     | 3.3052     |  35.7 | 52.40
Bond    | 0.06053    | 0.086566   | 0.11411    |   5.8 |  1.87
Neigh   | 0.37997    | 0.38132    | 0.38277    |   0.1 |  8.24
Comm    | 0.2403     | 1.2567     | 2.3273     |  57.2 | 27.17
Output  | 4.6015e-05 | 6.2505e-05 | 7.6056e-05 |   0.0 |  0.00
Modify  | 0.30138    | 0.43453    | 0.57052    |  13.0 |  9.39
Other   |            | 0.04279    |            |       |  0.92

Nlocal:        1034.67 ave        1360 max         721 min
Histogram: 1 0 0 2 1 0 0 1 0 1
Nghost:        978.333 ave        1126 max         798 min
Histogram: 1 0 1 0 0 1 1 0 0 2
Neighs:        15339.0 ave       21039 max        9410 min
Histogram: 1 0 0 1 1 1 0 1 0 1

Total # of neighbors = 92034
Ave neighs/atom = 14.825064
Ave special neighs/atom = 1.9793814
Neighbor list builds = 358
Dangerous builds = 0

if "${myDensity} > 1.0" then "jump SELF break"

next a
jump SELF loop
variable a loop 1000
change_box all x scale 0.95 y scale 0.95 z scale 0.95 remap
Changing box ...
  orthogonal box = (240.75784 221.85035 221.85035) to (959.24216 978.14965 978.14965)
  orthogonal box = (240.75784 240.75784 221.85035) to (959.24216 959.24216 978.14965)
  orthogonal box = (240.75784 240.75784 240.75784) to (959.24216 959.24216 959.24216)
run 8000
Per MPI rank memory allocation (min/avg/max) = 11.63 | 11.65 | 11.68 Mbytes
Step PotEng Temp Press KinEng Lx Ly Lz Pzz S/CPU Density 
 1078001    3137.3639    386.42635    6.7963379     7149.617    718.48433    718.48433    718.48433    6.7478158            0 0.0031187491 
 1086001    1028.2818    386.19475   0.10905044    7145.3319    718.48433    718.48433    718.48433  0.091318396    1693.2026 0.0031187491 
Loop time of 4.72489 on 6 procs for 8000 steps with 6208 atoms

Performance: 1462.892 ns/day, 0.016 hours/ns, 1693.162 timesteps/s
99.7% CPU use with 6 MPI tasks x no OpenMP threads

MPI task timing breakdown:
Section |  min time  |  avg time  |  max time  |%varavg| %total
---------------------------------------------------------------
Pair    | 1.7074     | 2.4564     | 3.2863     |  35.6 | 51.99
Bond    | 0.061588   | 0.086492   | 0.11101    |   6.0 |  1.83
Neigh   | 0.3823     | 0.38388    | 0.38562    |   0.2 |  8.12
Comm    | 0.36929    | 1.3189     | 2.196      |  56.0 | 27.91
Output  | 4.2915e-05 | 7.8162e-05 | 0.00015402 |   0.0 |  0.00
Modify  | 0.30748    | 0.43436    | 0.55642    |  13.2 |  9.19
Other   |            | 0.0447     |            |       |  0.95

Nlocal:        1034.67 ave        1362 max         717 min
Histogram: 1 0 0 2 1 0 0 1 0 1
Nghost:        974.833 ave        1145 max         798 min
Histogram: 1 1 0 0 2 0 0 0 0 2
Neighs:        15143.8 ave       19472 max       10868 min
Histogram: 1 0 1 0 2 0 0 1 0 1

Total # of neighbors = 90863
Ave neighs/atom = 14.636437
Ave special neighs/atom = 1.9793814
Neighbor list builds = 359
Dangerous builds = 0

if "${myDensity} > 1.0" then "jump SELF break"

next a
jump SELF loop
variable a loop 1000
change_box all x scale 0.95 y scale 0.95 z scale 0.95 remap
Changing box ...
  orthogonal box = (258.71994 240.75784 240.75784) to (941.28006 959.24216 959.24216)
  orthogonal box = (258.71994 258.71994 240.75784) to (941.28006 941.28006 959.24216)
  orthogonal box = (258.71994 258.71994 258.71994) to (941.28006 941.28006 941.28006)
run 8000
Per MPI rank memory allocation (min/avg/max) = 11.63 | 11.65 | 11.68 Mbytes
Step PotEng Temp Press KinEng Lx Ly Lz Pzz S/CPU Density 
 1086001    3157.5869    386.19475    7.9924318    7145.3319    682.56011    682.56011    682.56011    8.0595474            0 0.0036375554 
 1094001    1071.1233    385.86963  0.013595485    7139.3166    682.56011    682.56011    682.56011 -0.054056618     1730.711 0.0036375554 
Loop time of 4.6225 on 6 procs for 8000 steps with 6208 atoms

Performance: 1495.296 ns/day, 0.016 hours/ns, 1730.667 timesteps/s
99.7% CPU use with 6 MPI tasks x no OpenMP threads

MPI task timing breakdown:
Section |  min time  |  avg time  |  max time  |%varavg| %total
---------------------------------------------------------------
Pair    | 1.7021     | 2.4139     | 3.2392     |  30.6 | 52.22
Bond    | 0.060099   | 0.086369   | 0.11628    |   6.1 |  1.87
Neigh   | 0.36844    | 0.3694     | 0.37076    |   0.1 |  7.99
Comm    | 0.2981     | 1.269      | 2.1142     |  49.8 | 27.45
Output  | 4.8161e-05 | 8.4678e-05 | 0.00016809 |   0.0 |  0.00
Modify  | 0.30186    | 0.43425    | 0.58301    |  13.4 |  9.39
Other   |            | 0.04952    |            |       |  1.07

Nlocal:        1034.67 ave        1412 max         743 min
Histogram: 1 0 2 1 0 0 1 0 0 1
Nghost:        1038.17 ave        1344 max         807 min
Histogram: 1 0 0 3 0 1 0 0 0 1
Neighs:        15197.8 ave       20967 max       11421 min
Histogram: 1 1 1 1 0 0 1 0 0 1

Total # of neighbors = 91187
Ave neighs/atom = 14.688628
Ave special neighs/atom = 1.9793814
Neighbor list builds = 350
Dangerous builds = 0

if "${myDensity} > 1.0" then "jump SELF break"

next a
jump SELF loop
variable a loop 1000
change_box all x scale 0.95 y scale 0.95 z scale 0.95 remap
Changing box ...
  orthogonal box = (275.78395 258.71994 258.71994) to (924.21605 941.28006 941.28006)
  orthogonal box = (275.78395 275.78395 258.71994) to (924.21605 924.21605 941.28006)
  orthogonal box = (275.78395 275.78395 275.78395) to (924.21605 924.21605 924.21605)
run 8000
Per MPI rank memory allocation (min/avg/max) = 11.63 | 11.65 | 11.68 Mbytes
Step PotEng Temp Press KinEng Lx Ly Lz Pzz S/CPU Density 
 1094001    3133.8486    385.86963    9.2339153    7139.3166    648.43211    648.43211    648.43211      9.14644            0 0.0042426656 
 1102001    1122.2946    388.53856  0.042127376    7188.6969    648.43211    648.43211    648.43211 -0.014551004    1732.1364 0.0042426656 
Loop time of 4.61861 on 6 procs for 8000 steps with 6208 atoms

Performance: 1496.554 ns/day, 0.016 hours/ns, 1732.123 timesteps/s
99.7% CPU use with 6 MPI tasks x no OpenMP threads

MPI task timing breakdown:
Section |  min time  |  avg time  |  max time  |%varavg| %total
---------------------------------------------------------------
Pair    | 1.9207     | 2.4171     | 3.257      |  31.1 | 52.33
Bond    | 0.068497   | 0.086184   | 0.11372    |   5.5 |  1.87
Neigh   | 0.36398    | 0.36511    | 0.36603    |   0.1 |  7.91
Comm    | 0.29139    | 1.2656     | 1.8233     |  50.1 | 27.40
Output  | 0.0048358  | 0.0049926  | 0.0051572  |   0.1 |  0.11
Modify  | 0.34316    | 0.43385    | 0.57045    |  12.1 |  9.39
Other   |            | 0.04585    |            |       |  0.99

Nlocal:        1034.67 ave        1348 max         881 min
Histogram: 3 1 0 0 0 0 0 1 0 1
Nghost:        1022.83 ave        1187 max         810 min
Histogram: 1 0 0 1 1 1 0 0 0 2
Neighs:        15146.2 ave       20422 max       12257 min
Histogram: 2 1 0 1 0 0 1 0 0 1

Total # of neighbors = 90877
Ave neighs/atom = 14.638692
Ave special neighs/atom = 1.9793814
Neighbor list builds = 353
Dangerous builds = 0

if "${myDensity} > 1.0" then "jump SELF break"

next a
jump SELF loop
variable a loop 1000
change_box all x scale 0.95 y scale 0.95 z scale 0.95 remap
Changing box ...
  orthogonal box = (291.99475 275.78395 275.78395) to (908.00525 924.21605 924.21605)
  orthogonal box = (291.99475 291.99475 275.78395) to (908.00525 908.00525 924.21605)
  orthogonal box = (291.99475 291.99475 291.99475) to (908.00525 908.00525 908.00525)
run 8000
Per MPI rank memory allocation (min/avg/max) = 11.79 | 11.81 | 11.86 Mbytes
Step PotEng Temp Press KinEng Lx Ly Lz Pzz S/CPU Density 
 1102001    3173.7714    388.53856    10.705053    7188.6969     616.0105     616.0105     616.0105    10.668417            0 0.0049484363 
 1110001    1102.0275    378.03294 -0.037788168    6994.3231     616.0105     616.0105     616.0105 -0.069747522    1800.2812 0.0049484363 
Loop time of 4.44387 on 6 procs for 8000 steps with 6208 atoms

Performance: 1555.401 ns/day, 0.015 hours/ns, 1800.233 timesteps/s
99.7% CPU use with 6 MPI tasks x no OpenMP threads

MPI task timing breakdown:
Section |  min time  |  avg time  |  max time  |%varavg| %total
---------------------------------------------------------------
Pair    | 1.9327     | 2.3886     | 3.153      |  29.4 | 53.75
Bond    | 0.071503   | 0.086322   | 0.10791    |   4.7 |  1.94
Neigh   | 0.33816    | 0.33925    | 0.33994    |   0.1 |  7.63
Comm    | 0.289      | 1.1571     | 1.6899     |  48.5 | 26.04
Output  | 4.1962e-05 | 6.636e-05  | 0.0001471  |   0.0 |  0.00
Modify  | 0.36418    | 0.43384    | 0.53862    |  10.2 |  9.76
Other   |            | 0.03868    |            |       |  0.87

Nlocal:        1034.67 ave        1228 max         824 min
Histogram: 1 0 0 2 0 1 0 0 0 2
Nghost:        1081.67 ave        1185 max         929 min
Histogram: 1 0 0 1 1 0 0 1 0 2
Neighs:        14808.0 ave       18655 max       11277 min
Histogram: 1 0 1 1 1 0 0 0 1 1

Total # of neighbors = 88848
Ave neighs/atom = 14.311856
Ave special neighs/atom = 1.9793814
Neighbor list builds = 353
Dangerous builds = 0

if "${myDensity} > 1.0" then "jump SELF break"

next a
jump SELF loop
variable a loop 1000
change_box all x scale 0.95 y scale 0.95 z scale 0.95 remap
Changing box ...
  orthogonal box = (307.39501 291.99475 291.99475) to (892.60499 908.00525 908.00525)
  orthogonal box = (307.39501 307.39501 291.99475) to (892.60499 892.60499 908.00525)
  orthogonal box = (307.39501 307.39501 307.39501) to (892.60499 892.60499 892.60499)
run 8000
Per MPI rank memory allocation (min/avg/max) = 11.79 | 11.81 | 11.86 Mbytes
Step PotEng Temp Press KinEng Lx Ly Lz Pzz S/CPU Density 
 1110001    3146.1944    378.03294    12.472653    6994.3231    585.20997    585.20997    585.20997    12.692282            0 0.0057716126 
 1118001    998.07275    390.75428   0.14948234    7229.6918    585.20997    585.20997    585.20997  0.058624871     1931.388 0.0057716126 
Loop time of 4.14213 on 6 procs for 8000 steps with 6208 atoms

Performance: 1668.706 ns/day, 0.014 hours/ns, 1931.373 timesteps/s
99.7% CPU use with 6 MPI tasks x no OpenMP threads

MPI task timing breakdown:
Section |  min time  |  avg time  |  max time  |%varavg| %total
---------------------------------------------------------------
Pair    | 1.8487     | 2.4096     | 2.8906     |  23.6 | 58.17
Bond    | 0.06843    | 0.086356   | 0.10086    |   3.9 |  2.08
Neigh   | 0.32103    | 0.32171    | 0.32299    |   0.1 |  7.77
Comm    | 0.30785    | 0.85991    | 1.513      |  45.4 | 20.76
Output  | 3.8862e-05 | 5.2134e-05 | 6.8188e-05 |   0.0 |  0.00
Modify  | 0.34664    | 0.43339    | 0.50506    |   8.4 | 10.46
Other   |            | 0.03112    |            |       |  0.75

Nlocal:        1034.67 ave        1186 max         817 min
Histogram: 1 0 0 1 1 0 0 1 0 2
Nghost:        1161.00 ave        1289 max         964 min
Histogram: 1 1 0 0 0 0 0 1 1 2
Neighs:        15836.3 ave       19868 max       11947 min
Histogram: 1 0 1 1 1 0 0 0 1 1

Total # of neighbors = 95018
Ave neighs/atom = 15.305735
Ave special neighs/atom = 1.9793814
Neighbor list builds = 352
Dangerous builds = 0

if "${myDensity} > 1.0" then "jump SELF break"

next a
jump SELF loop
variable a loop 1000
change_box all x scale 0.95 y scale 0.95 z scale 0.95 remap
Changing box ...
  orthogonal box = (322.02526 307.39501 307.39501) to (877.97474 892.60499 892.60499)
  orthogonal box = (322.02526 322.02526 307.39501) to (877.97474 877.97474 892.60499)
  orthogonal box = (322.02526 322.02526 322.02526) to (877.97474 877.97474 877.97474)
run 8000
Per MPI rank memory allocation (min/avg/max) = 11.79 | 11.81 | 11.86 Mbytes
Step PotEng Temp Press KinEng Lx Ly Lz Pzz S/CPU Density 
 1118001    3101.7066    390.75428    14.760344    7229.6918    555.94948    555.94948    555.94948    14.496712            0 0.0067317249 
 1126001    979.14221    379.51113  -0.26238969    7021.6723    555.94948    555.94948    555.94948  -0.56176316    1898.9967 0.0067317249 
Loop time of 4.21286 on 6 procs for 8000 steps with 6208 atoms

Performance: 1640.689 ns/day, 0.015 hours/ns, 1898.946 timesteps/s
99.7% CPU use with 6 MPI tasks x no OpenMP threads

MPI task timing breakdown:
Section |  min time  |  avg time  |  max time  |%varavg| %total
---------------------------------------------------------------
Pair    | 1.8758     | 2.5139     | 2.9522     |  22.1 | 59.67
Bond    | 0.064799   | 0.086613   | 0.10283    |   4.1 |  2.06
Neigh   | 0.32495    | 0.32612    | 0.32725    |   0.1 |  7.74
Comm    | 0.33006    | 0.81981    | 1.5684     |  45.2 | 19.46
Output  | 4.7922e-05 | 6.7631e-05 | 0.00014091 |   0.0 |  0.00
Modify  | 0.32845    | 0.43385    | 0.512      |   8.9 | 10.30
Other   |            | 0.03249    |            |       |  0.77

Nlocal:        1034.67 ave        1271 max         805 min
Histogram: 1 0 0 1 1 1 1 0 0 1
Nghost:        1239.33 ave        1484 max        1081 min
Histogram: 2 0 1 1 0 0 1 0 0 1
Neighs:        15914.8 ave       17597 max       14071 min
Histogram: 1 0 1 1 0 0 1 0 1 1

Total # of neighbors = 95489
Ave neighs/atom = 15.381604
Ave special neighs/atom = 1.9793814
Neighbor list builds = 355
Dangerous builds = 0

if "${myDensity} > 1.0" then "jump SELF break"

next a
jump SELF loop
variable a loop 1000
change_box all x scale 0.95 y scale 0.95 z scale 0.95 remap
Changing box ...
  orthogonal box = (335.92400 322.02526 322.02526) to (864.07600 877.97474 877.97474)
  orthogonal box = (335.92400 335.92400 322.02526) to (864.07600 864.07600 877.97474)
  orthogonal box = (335.92400 335.92400 335.92400) to (864.07600 864.07600 864.07600)
run 8000
Per MPI rank memory allocation (min/avg/max) = 11.79 | 11.81 | 11.86 Mbytes
Step PotEng Temp Press KinEng Lx Ly Lz Pzz S/CPU Density 
 1126001    2912.6039    379.51113    16.543894    7021.6723      528.152      528.152      528.152    16.249562            0 0.0078515525 
 1134001    1110.4568    384.09996   0.24922375    7106.5744      528.152      528.152      528.152   0.33846567    1920.4884 0.0078515525 
Loop time of 4.16564 on 6 procs for 8000 steps with 6208 atoms

Performance: 1659.287 ns/day, 0.014 hours/ns, 1920.471 timesteps/s
99.7% CPU use with 6 MPI tasks x no OpenMP threads

MPI task timing breakdown:
Section |  min time  |  avg time  |  max time  |%varavg| %total
---------------------------------------------------------------
Pair    | 2.0766     | 2.5189     | 2.9167     |  16.4 | 60.47
Bond    | 0.068111   | 0.086608   | 0.10745    |   4.1 |  2.08
Neigh   | 0.31943    | 0.32114    | 0.32223    |   0.2 |  7.71
Comm    | 0.26739    | 0.768      | 1.2984     |  36.2 | 18.44
Output  | 4.6968e-05 | 5.6585e-05 | 6.8903e-05 |   0.0 |  0.00
Modify  | 0.34418    | 0.4335     | 0.53626    |   9.0 | 10.41
Other   |            | 0.03741    |            |       |  0.90

Nlocal:        1034.67 ave        1283 max         741 min
Histogram: 1 0 0 0 3 0 0 0 1 1
Nghost:        1283.67 ave        1528 max        1010 min
Histogram: 1 0 0 1 1 1 0 1 0 1
Neighs:        15576.5 ave       18243 max       12368 min
Histogram: 1 0 1 0 1 0 1 0 0 2

Total # of neighbors = 93459
Ave neighs/atom = 15.054607
Ave special neighs/atom = 1.9793814
Neighbor list builds = 353
Dangerous builds = 0

if "${myDensity} > 1.0" then "jump SELF break"

next a
jump SELF loop
variable a loop 1000
change_box all x scale 0.95 y scale 0.95 z scale 0.95 remap
Changing box ...
  orthogonal box = (349.12780 335.92400 335.92400) to (850.87220 864.07600 864.07600)
  orthogonal box = (349.12780 349.12780 335.92400) to (850.87220 850.87220 864.07600)
  orthogonal box = (349.12780 349.12780 349.12780) to (850.87220 850.87220 850.87220)
run 8000
Per MPI rank memory allocation (min/avg/max) = 11.79 | 11.81 | 11.86 Mbytes
Step PotEng Temp Press KinEng Lx Ly Lz Pzz S/CPU Density 
 1134001    3268.7085    384.09996    20.344683    7106.5744     501.7444     501.7444     501.7444    20.884039            0 0.0091576644 
 1142001    1061.8173    392.26932  0.069029964    7257.7231     501.7444     501.7444     501.7444   0.37868441    1851.2545 0.0091576644 
Loop time of 4.32152 on 6 procs for 8000 steps with 6208 atoms

Performance: 1599.439 ns/day, 0.015 hours/ns, 1851.202 timesteps/s
99.7% CPU use with 6 MPI tasks x no OpenMP threads

MPI task timing breakdown:
Section |  min time  |  avg time  |  max time  |%varavg| %total
---------------------------------------------------------------
Pair    | 2.048      | 2.4824     | 3.0048     |  23.7 | 57.44
Bond    | 0.065846   | 0.086531   | 0.10726    |   4.7 |  2.00
Neigh   | 0.33838    | 0.34064    | 0.34298    |   0.3 |  7.88
Comm    | 0.31298    | 0.94149    | 1.4791     |  45.3 | 21.79
Output  | 4.1008e-05 | 6.2982e-05 | 0.0001471  |   0.0 |  0.00
Modify  | 0.33294    | 0.43395    | 0.53584    |  10.3 | 10.04
Other   |            | 0.03645    |            |       |  0.84

Nlocal:        1034.67 ave        1204 max         839 min
Histogram: 1 0 0 1 0 1 1 1 0 1
Nghost:        1394.00 ave        1674 max        1252 min
Histogram: 1 3 0 0 0 1 0 0 0 1
Neighs:        14991.2 ave       16876 max       12549 min
Histogram: 1 0 1 0 1 0 0 0 2 1

Total # of neighbors = 89947
Ave neighs/atom = 14.488885
Ave special neighs/atom = 1.9793814
Neighbor list builds = 357
Dangerous builds = 0

if "${myDensity} > 1.0" then "jump SELF break"

next a
jump SELF loop
variable a loop 1000
change_box all x scale 0.95 y scale 0.95 z scale 0.95 remap
Changing box ...
  orthogonal box = (361.67141 349.12780 349.12780) to (838.32859 850.87220 850.87220)
  orthogonal box = (361.67141 361.67141 349.12780) to (838.32859 838.32859 850.87220)
  orthogonal box = (361.67141 361.67141 361.67141) to (838.32859 838.32859 838.32859)
run 8000
Per MPI rank memory allocation (min/avg/max) = 11.79 | 11.82 | 11.87 Mbytes
Step PotEng Temp Press KinEng Lx Ly Lz Pzz S/CPU Density 
 1142001    3121.6458    392.26932     23.27743    7257.7231    476.65718    476.65718    476.65718    23.607562            0  0.010681049 
 1150001    1072.4528    384.12361 -0.036775053     7107.012    476.65718    476.65718    476.65718  -0.13057378    1953.2089  0.010681049 
Loop time of 4.09595 on 6 procs for 8000 steps with 6208 atoms

Performance: 1687.521 ns/day, 0.014 hours/ns, 1953.150 timesteps/s
99.6% CPU use with 6 MPI tasks x no OpenMP threads

MPI task timing breakdown:
Section |  min time  |  avg time  |  max time  |%varavg| %total
---------------------------------------------------------------
Pair    | 1.8935     | 2.4692     | 2.8876     |  20.0 | 60.28
Bond    | 0.064162   | 0.086651   | 0.09693    |   3.6 |  2.12
Neigh   | 0.31321    | 0.31637    | 0.31958    |   0.4 |  7.72
Comm    | 0.29204    | 0.76293    | 1.4469     |  41.6 | 18.63
Output  | 4.0054e-05 | 6.8148e-05 | 0.00015998 |   0.0 |  0.00
Modify  | 0.32576    | 0.43396    | 0.48327    |   7.8 | 10.59
Other   |            | 0.02675    |            |       |  0.65

Nlocal:        1034.67 ave        1170 max         748 min
Histogram: 1 0 0 0 0 0 1 1 2 1
Nghost:        1574.17 ave        1775 max        1385 min
Histogram: 1 0 1 0 1 1 1 0 0 1
Neighs:        15015.8 ave       17535 max       10655 min
Histogram: 1 0 0 0 0 1 1 0 2 1

Total # of neighbors = 90095
Ave neighs/atom = 14.512726
Ave special neighs/atom = 1.9793814
Neighbor list builds = 355
Dangerous builds = 0

if "${myDensity} > 1.0" then "jump SELF break"

next a
jump SELF loop
variable a loop 1000
change_box all x scale 0.95 y scale 0.95 z scale 0.95 remap
Changing box ...
  orthogonal box = (373.58784 361.67141 361.67141) to (826.41216 838.32859 838.32859)
  orthogonal box = (373.58784 373.58784 361.67141) to (826.41216 826.41216 838.32859)
  orthogonal box = (373.58784 373.58784 373.58784) to (826.41216 826.41216 826.41216)
run 8000
Per MPI rank memory allocation (min/avg/max) = 11.79 | 11.82 | 11.87 Mbytes
Step PotEng Temp Press KinEng Lx Ly Lz Pzz S/CPU Density 
 1150001    3109.5181    384.12361    26.907393     7107.012    452.82432    452.82432    452.82432    27.053128            0   0.01245785 
 1158001    1067.1598    390.83026  -0.38402702    7231.0976    452.82432    452.82432    452.82432  -0.16851518    1883.2029   0.01245785 
Loop time of 4.24812 on 6 procs for 8000 steps with 6208 atoms

Performance: 1627.075 ns/day, 0.015 hours/ns, 1883.188 timesteps/s
99.8% CPU use with 6 MPI tasks x no OpenMP threads

MPI task timing breakdown:
Section |  min time  |  avg time  |  max time  |%varavg| %total
---------------------------------------------------------------
Pair    | 1.9244     | 2.4249     | 2.94       |  21.5 | 57.08
Bond    | 0.070284   | 0.086749   | 0.10063    |   3.4 |  2.04
Neigh   | 0.33247    | 0.33661    | 0.34027    |   0.5 |  7.92
Comm    | 0.35163    | 0.93215    | 1.5081     |  39.3 | 21.94
Output  | 3.7909e-05 | 5.0942e-05 | 6.6996e-05 |   0.0 |  0.00
Modify  | 0.35682    | 0.43392    | 0.50114    |   7.2 | 10.21
Other   |            | 0.03379    |            |       |  0.80

Nlocal:        1034.67 ave        1194 max         868 min
Histogram: 2 0 0 0 0 1 1 0 1 1
Nghost:        1634.33 ave        2040 max        1423 min
Histogram: 2 0 2 0 0 1 0 0 0 1
Neighs:        15064.5 ave       17199 max       11707 min
Histogram: 1 0 0 1 0 0 1 0 2 1

Total # of neighbors = 90387
Ave neighs/atom = 14.559762
Ave special neighs/atom = 1.9793814
Neighbor list builds = 355
Dangerous builds = 0

if "${myDensity} > 1.0" then "jump SELF break"

next a
jump SELF loop
variable a loop 1000
change_box all x scale 0.95 y scale 0.95 z scale 0.95 remap
Changing box ...
  orthogonal box = (384.90845 373.58784 373.58784) to (815.09155 826.41216 826.41216)
  orthogonal box = (384.90845 384.90845 373.58784) to (815.09155 815.09155 826.41216)
  orthogonal box = (384.90845 384.90845 384.90845) to (815.09155 815.09155 815.09155)
run 8000
Per MPI rank memory allocation (min/avg/max) = 11.79 | 11.82 | 11.87 Mbytes
Step PotEng Temp Press KinEng Lx Ly Lz Pzz S/CPU Density 
 1158001    3036.7917    390.83026    31.187024    7231.0976    430.18311    430.18311    430.18311    31.313103            0  0.014530223 
 1166001      1059.29      383.597   0.13919618    7097.2686    430.18311    430.18311    430.18311  0.050134809     1910.581  0.014530223 
Loop time of 4.18732 on 6 procs for 8000 steps with 6208 atoms

Performance: 1650.696 ns/day, 0.015 hours/ns, 1910.528 timesteps/s
99.8% CPU use with 6 MPI tasks x no OpenMP threads

MPI task timing breakdown:
Section |  min time  |  avg time  |  max time  |%varavg| %total
---------------------------------------------------------------
Pair    | 1.8773     | 2.448      | 2.8213     |  25.9 | 58.46
Bond    | 0.069789   | 0.086855   | 0.099392   |   4.0 |  2.07
Neigh   | 0.32846    | 0.33325    | 0.33805    |   0.6 |  7.96
Comm    | 0.45137    | 0.8556     | 1.5112     |  49.6 | 20.43
Output  | 4.1008e-05 | 6.6042e-05 | 0.00014591 |   0.0 |  0.00
Modify  | 0.35307    | 0.43411    | 0.49516    |   8.6 | 10.37
Other   |            | 0.02949    |            |       |  0.70

Nlocal:        1034.67 ave        1202 max         801 min
Histogram: 2 0 0 0 0 0 0 1 1 2
Nghost:        1647.50 ave        1977 max        1288 min
Histogram: 1 1 0 0 1 1 0 0 1 1
Neighs:        15583.7 ave       19290 max       11260 min
Histogram: 2 0 0 0 1 0 0 0 1 2

Total # of neighbors = 93502
Ave neighs/atom = 15.061534
Ave special neighs/atom = 1.9793814
Neighbor list builds = 360
Dangerous builds = 0

if "${myDensity} > 1.0" then "jump SELF break"

next a
jump SELF loop
variable a loop 1000
change_box all x scale 0.95 y scale 0.95 z scale 0.95 remap
Changing box ...
  orthogonal box = (395.66302 384.90845 384.90845) to (804.33698 815.09155 815.09155)
  orthogonal box = (395.66302 395.66302 384.90845) to (804.33698 804.33698 815.09155)
  orthogonal box = (395.66302 395.66302 395.66302) to (804.33698 804.33698 804.33698)
run 8000
Per MPI rank memory allocation (min/avg/max) = 11.79 | 11.82 | 11.87 Mbytes
Step PotEng Temp Press KinEng Lx Ly Lz Pzz S/CPU Density 
 1166001    3127.4277      383.597    36.772575    7097.2686    408.67395    408.67395    408.67395    36.973259            0  0.016947337 
 1174001    1030.7993    386.79704  0.027984737    7156.4754    408.67395    408.67395    408.67395  -0.12779245    1713.5498  0.016947337 
Loop time of 4.66879 on 6 procs for 8000 steps with 6208 atoms

Performance: 1480.469 ns/day, 0.016 hours/ns, 1713.506 timesteps/s
99.7% CPU use with 6 MPI tasks x no OpenMP threads

MPI task timing breakdown:
Section |  min time  |  avg time  |  max time  |%varavg| %total
---------------------------------------------------------------
Pair    | 1.7986     | 2.6613     | 3.3103     |  31.9 | 57.00
Bond    | 0.066454   | 0.086906   | 0.10154    |   4.4 |  1.86
Neigh   | 0.35688    | 0.36114    | 0.36535    |   0.5 |  7.74
Comm    | 0.37361    | 1.0908     | 2.0506     |  55.6 | 23.36
Output  | 4.6015e-05 | 7.1843e-05 | 0.00015187 |   0.0 |  0.00
Modify  | 0.33458    | 0.43462    | 0.50443    |   9.4 |  9.31
Other   |            | 0.03393    |            |       |  0.73

Nlocal:        1034.67 ave        1189 max         730 min
Histogram: 1 0 0 0 1 0 0 1 1 2
Nghost:        1676.50 ave        2068 max        1447 min
Histogram: 1 2 0 1 1 0 0 0 0 1
Neighs:        16917.5 ave       21844 max        9740 min
Histogram: 1 0 0 1 0 1 1 0 0 2

Total # of neighbors = 101505
Ave neighs/atom = 16.350677
Ave special neighs/atom = 1.9793814
Neighbor list builds = 353
Dangerous builds = 0

if "${myDensity} > 1.0" then "jump SELF break"

next a
jump SELF loop
variable a loop 1000
change_box all x scale 0.95 y scale 0.95 z scale 0.95 remap
Changing box ...
  orthogonal box = (405.87987 395.66302 395.66302) to (794.12013 804.33698 804.33698)
  orthogonal box = (405.87987 405.87987 395.66302) to (794.12013 794.12013 804.33698)
  orthogonal box = (405.87987 405.87987 405.87987) to (794.12013 794.12013 794.12013)
run 8000
Per MPI rank memory allocation (min/avg/max) = 11.79 | 11.82 | 11.87 Mbytes
Step PotEng Temp Press KinEng Lx Ly Lz Pzz S/CPU Density 
 1174001    3082.5245    386.79704    42.915176    7156.4754    388.24025    388.24025    388.24025    42.225881            0   0.01976654 
 1182001    1109.9302    381.93534  -0.32408899    7066.5249    388.24025    388.24025    388.24025  -0.24520555    1756.5905   0.01976654 
Loop time of 4.55431 on 6 procs for 8000 steps with 6208 atoms

Performance: 1517.683 ns/day, 0.016 hours/ns, 1756.577 timesteps/s
99.7% CPU use with 6 MPI tasks x no OpenMP threads

MPI task timing breakdown:
Section |  min time  |  avg time  |  max time  |%varavg| %total
---------------------------------------------------------------
Pair    | 1.9272     | 2.7172     | 3.1738     |  27.9 | 59.66
Bond    | 0.063765   | 0.086832   | 0.098071   |   4.4 |  1.91
Neigh   | 0.37387    | 0.37858    | 0.3827     |   0.5 |  8.31
Comm    | 0.40113    | 0.90821    | 1.8089     |  54.7 | 19.94
Output  | 4.3154e-05 | 5.3088e-05 | 6.6042e-05 |   0.0 |  0.00
Modify  | 0.31954    | 0.4336     | 0.49147    |   9.7 |  9.52
Other   |            | 0.02983    |            |       |  0.66

Nlocal:        1034.67 ave        1208 max         750 min
Histogram: 1 0 0 1 0 1 0 0 0 3
Nghost:        1710.83 ave        1939 max        1375 min
Histogram: 1 0 1 0 0 1 0 0 1 2
Neighs:        16664.2 ave       20855 max       10803 min
Histogram: 1 0 0 1 0 0 1 2 0 1

Total # of neighbors = 99985
Ave neighs/atom = 16.105831
Ave special neighs/atom = 1.9793814
Neighbor list builds = 364
Dangerous builds = 0

if "${myDensity} > 1.0" then "jump SELF break"

next a
jump SELF loop
variable a loop 1000
change_box all x scale 0.95 y scale 0.95 z scale 0.95 remap
Changing box ...
  orthogonal box = (415.58588 405.87987 405.87987) to (784.41412 794.12013 794.12013)
  orthogonal box = (415.58588 415.58588 405.87987) to (784.41412 784.41412 794.12013)
  orthogonal box = (415.58588 415.58588 415.58588) to (784.41412 784.41412 784.41412)
run 8000
Per MPI rank memory allocation (min/avg/max) = 11.79 | 11.82 | 11.87 Mbytes
Step PotEng Temp Press KinEng Lx Ly Lz Pzz S/CPU Density 
 1182001    3107.7442    381.93534    49.313409    7066.5249    368.82824    368.82824    368.82824    50.242228            0  0.023054719 
 1190001    977.21529    391.25594   0.22996383    7238.9736    368.82824    368.82824    368.82824   -0.2179277    1708.0101  0.023054719 
Loop time of 4.68393 on 6 procs for 8000 steps with 6208 atoms

Performance: 1475.684 ns/day, 0.016 hours/ns, 1707.968 timesteps/s
99.7% CPU use with 6 MPI tasks x no OpenMP threads

MPI task timing breakdown:
Section |  min time  |  avg time  |  max time  |%varavg| %total
---------------------------------------------------------------
Pair    | 1.9134     | 2.7132     | 3.33       |  29.0 | 57.93
Bond    | 0.067729   | 0.086956   | 0.098868   |   3.6 |  1.86
Neigh   | 0.39061    | 0.39431    | 0.39808    |   0.5 |  8.42
Comm    | 0.35018    | 1.0239     | 1.9155     |  51.6 | 21.86
Output  | 4.4823e-05 | 6.6439e-05 | 0.00014305 |   0.0 |  0.00
Modify  | 0.33907    | 0.43455    | 0.49055    |   8.0 |  9.28
Other   |            | 0.03093    |            |       |  0.66

Nlocal:        1034.67 ave        1187 max         819 min
Histogram: 1 0 0 0 2 0 0 1 0 2
Nghost:        1977.50 ave        2187 max        1601 min
Histogram: 1 0 1 0 0 0 0 1 1 2
Neighs:        17358.2 ave       22163 max       13248 min
Histogram: 1 0 2 0 1 0 0 1 0 1

Total # of neighbors = 104149
Ave neighs/atom = 16.776579
Ave special neighs/atom = 1.9793814
Neighbor list builds = 359
Dangerous builds = 0

if "${myDensity} > 1.0" then "jump SELF break"

next a
jump SELF loop
variable a loop 1000
change_box all x scale 0.95 y scale 0.95 z scale 0.95 remap
Changing box ...
  orthogonal box = (424.80659 415.58588 415.58588) to (775.19341 784.41412 784.41412)
  orthogonal box = (424.80659 424.80659 415.58588) to (775.19341 775.19341 784.41412)
  orthogonal box = (424.80659 424.80659 424.80659) to (775.19341 775.19341 775.19341)
run 8000
Per MPI rank memory allocation (min/avg/max) = 11.80 | 11.82 | 11.87 Mbytes
Step PotEng Temp Press KinEng Lx Ly Lz Pzz S/CPU Density 
 1190001    3061.3792    391.25594    59.056678    7238.9736    350.38683    350.38683    350.38683    58.214819            0  0.026889889 
 1198001    1051.4947    384.57222  -0.46040026    7115.3121    350.38683    350.38683    350.38683  -0.42678989    1626.1842  0.026889889 
Loop time of 4.91961 on 6 procs for 8000 steps with 6208 atoms

Performance: 1404.990 ns/day, 0.017 hours/ns, 1626.146 timesteps/s
99.7% CPU use with 6 MPI tasks x no OpenMP threads

MPI task timing breakdown:
Section |  min time  |  avg time  |  max time  |%varavg| %total
---------------------------------------------------------------
Pair    | 2.1607     | 2.7273     | 3.5001     |  28.0 | 55.44
Bond    | 0.072877   | 0.087      | 0.10067    |   3.4 |  1.77
Neigh   | 0.4131     | 0.41566    | 0.41837    |   0.3 |  8.45
Comm    | 0.38238    | 1.223      | 1.8564     |  45.7 | 24.86
Output  | 3.9101e-05 | 6.6479e-05 | 0.00014687 |   0.0 |  0.00
Modify  | 0.36403    | 0.43406    | 0.5006     |   7.6 |  8.82
Other   |            | 0.03246    |            |       |  0.66

Nlocal:        1034.67 ave        1210 max         860 min
Histogram: 2 0 0 1 0 0 1 0 0 2
Nghost:        1979.50 ave        2264 max        1610 min
Histogram: 2 0 0 0 0 0 1 1 0 2
Neighs:        17180.0 ave       22160 max       12591 min
Histogram: 1 0 0 2 1 0 0 0 1 1

Total # of neighbors = 103080
Ave neighs/atom = 16.604381
Ave special neighs/atom = 1.9793814
Neighbor list builds = 356
Dangerous builds = 0

if "${myDensity} > 1.0" then "jump SELF break"

next a
jump SELF loop
variable a loop 1000
change_box all x scale 0.95 y scale 0.95 z scale 0.95 remap
Changing box ...
  orthogonal box = (433.56626 424.80659 424.80659) to (766.43374 775.19341 775.19341)
  orthogonal box = (433.56626 433.56626 424.80659) to (766.43374 766.43374 775.19341)
  orthogonal box = (433.56626 433.56626 433.56626) to (766.43374 766.43374 766.43374)
run 8000
Per MPI rank memory allocation (min/avg/max) = 11.80 | 11.82 | 11.87 Mbytes
Step PotEng Temp Press KinEng Lx Ly Lz Pzz S/CPU Density 
 1198001    3059.8518    384.57222    67.526048    7115.3121    332.86749    332.86749    332.86749    67.668298            0  0.031363043 
 1206001    921.76882    386.03958  -0.39800837    7142.4611    332.86749    332.86749    332.86749  -0.14272403    1463.1447  0.031363043 
Loop time of 5.4678 on 6 procs for 8000 steps with 6208 atoms

Performance: 1264.128 ns/day, 0.019 hours/ns, 1463.111 timesteps/s
99.7% CPU use with 6 MPI tasks x no OpenMP threads

MPI task timing breakdown:
Section |  min time  |  avg time  |  max time  |%varavg| %total
---------------------------------------------------------------
Pair    | 1.9568     | 2.8449     | 3.9526     |  37.4 | 52.03
Bond    | 0.068797   | 0.087213   | 0.11125    |   5.1 |  1.60
Neigh   | 0.46956    | 0.47337    | 0.47842    |   0.4 |  8.66
Comm    | 0.35194    | 1.5821     | 2.5603     |  55.9 | 28.93
Output  | 0.0038791  | 0.004041   | 0.0042751  |   0.2 |  0.07
Modify  | 0.34363    | 0.43445    | 0.55222    |  11.2 |  7.95
Other   |            | 0.0418     |            |       |  0.76

Nlocal:        1034.67 ave        1353 max         769 min
Histogram: 1 1 0 2 0 0 0 0 1 1
Nghost:        2252.33 ave        2578 max        1430 min
Histogram: 1 0 0 0 0 0 1 0 2 2
Neighs:        18622.3 ave       26424 max       11628 min
Histogram: 1 0 1 0 2 0 1 0 0 1

Total # of neighbors = 111734
Ave neighs/atom = 17.998389
Ave special neighs/atom = 1.9793814
Neighbor list builds = 358
Dangerous builds = 0

if "${myDensity} > 1.0" then "jump SELF break"

next a
jump SELF loop
variable a loop 1000
change_box all x scale 0.95 y scale 0.95 z scale 0.95 remap
Changing box ...
  orthogonal box = (441.88794 433.56626 433.56626) to (758.11206 766.43374 766.43374)
  orthogonal box = (441.88794 441.88794 433.56626) to (758.11206 758.11206 766.43374)
  orthogonal box = (441.88794 441.88794 441.88794) to (758.11206 758.11206 758.11206)
run 8000
Per MPI rank memory allocation (min/avg/max) = 11.81 | 11.83 | 11.88 Mbytes
Step PotEng Temp Press KinEng Lx Ly Lz Pzz S/CPU Density 
 1206001    2929.4714    386.03958     78.65741    7142.4611    316.22411    316.22411    316.22411    79.000509            0   0.03658031 
 1214001    908.47905    382.00072   0.75268005    7067.7346    316.22411    316.22411    316.22411    1.2876807    1470.6969   0.03658031 
Loop time of 5.43971 on 6 procs for 8000 steps with 6208 atoms

Performance: 1270.656 ns/day, 0.019 hours/ns, 1470.666 timesteps/s
99.7% CPU use with 6 MPI tasks x no OpenMP threads

MPI task timing breakdown:
Section |  min time  |  avg time  |  max time  |%varavg| %total
---------------------------------------------------------------
Pair    | 2.3651     | 2.9575     | 3.9296     |  32.5 | 54.37
Bond    | 0.070096   | 0.087348   | 0.1108     |   5.1 |  1.61
Neigh   | 0.45379    | 0.45841    | 0.46576    |   0.6 |  8.43
Comm    | 0.36895    | 1.4602     | 2.1375     |  52.0 | 26.84
Output  | 3.6955e-05 | 6.2505e-05 | 0.000139   |   0.0 |  0.00
Modify  | 0.34942    | 0.43475    | 0.54692    |  11.1 |  7.99
Other   |            | 0.04153    |            |       |  0.76

Nlocal:        1034.67 ave        1267 max         853 min
Histogram: 2 0 1 0 0 1 0 1 0 1
Nghost:        2431.33 ave        3053 max        1764 min
Histogram: 1 0 1 0 0 2 0 1 0 1
Neighs:        17999.8 ave       21208 max       14082 min
Histogram: 1 0 0 1 1 0 1 0 1 1

Total # of neighbors = 107999
Ave neighs/atom = 17.396746
Ave special neighs/atom = 1.9793814
Neighbor list builds = 346
Dangerous builds = 0

if "${myDensity} > 1.0" then "jump SELF break"

next a
jump SELF loop
variable a loop 1000
change_box all x scale 0.95 y scale 0.95 z scale 0.95 remap
Changing box ...
  orthogonal box = (449.79355 441.88794 441.88794) to (750.20645 758.11206 758.11206)
  orthogonal box = (449.79355 449.79355 441.88794) to (750.20645 750.20645 758.11206)
  orthogonal box = (449.79355 449.79355 449.79355) to (750.20645 750.20645 750.20645)
run 8000
Per MPI rank memory allocation (min/avg/max) = 11.81 | 11.83 | 11.88 Mbytes
Step PotEng Temp Press KinEng Lx Ly Lz Pzz S/CPU Density 
 1214001    3014.6529    382.00072    93.333555    7067.7346    300.41291    300.41291    300.41291     94.44537            0  0.042665473 
 1222001    920.92072    380.60404  0.048867195    7041.8934    300.41291    300.41291    300.41291  -0.44386299    1467.8315  0.042665473 
Loop time of 5.45033 on 6 procs for 8000 steps with 6208 atoms

Performance: 1268.180 ns/day, 0.019 hours/ns, 1467.801 timesteps/s
99.7% CPU use with 6 MPI tasks x no OpenMP threads

MPI task timing breakdown:
Section |  min time  |  avg time  |  max time  |%varavg| %total
---------------------------------------------------------------
Pair    | 2.4041     | 2.985      | 3.7731     |  28.3 | 54.77
Bond    | 0.07364    | 0.087365   | 0.10447    |   4.2 |  1.60
Neigh   | 0.4464     | 0.44915    | 0.45294    |   0.4 |  8.24
Comm    | 0.58452    | 1.455      | 2.1038     |  45.4 | 26.70
Output  | 3.6955e-05 | 6.8823e-05 | 0.00014997 |   0.0 |  0.00
Modify  | 0.36898    | 0.43403    | 0.52026    |   9.3 |  7.96
Other   |            | 0.0397     |            |       |  0.73

Nlocal:        1034.67 ave        1265 max         866 min
Histogram: 2 0 1 0 1 0 0 1 0 1
Nghost:        2593.00 ave        3008 max        2263 min
Histogram: 1 1 1 0 1 0 0 0 1 1
Neighs:        19415.5 ave       26450 max       13355 min
Histogram: 1 0 1 0 2 0 1 0 0 1

Total # of neighbors = 116493
Ave neighs/atom = 18.764981
Ave special neighs/atom = 1.9793814
Neighbor list builds = 348
Dangerous builds = 0

if "${myDensity} > 1.0" then "jump SELF break"

next a
jump SELF loop
variable a loop 1000
change_box all x scale 0.95 y scale 0.95 z scale 0.95 remap
Changing box ...
  orthogonal box = (457.30387 449.79355 449.79355) to (742.69613 750.20645 750.20645)
  orthogonal box = (457.30387 457.30387 449.79355) to (742.69613 742.69613 750.20645)
  orthogonal box = (457.30387 457.30387 457.30387) to (742.69613 742.69613 742.69613)
run 8000
Per MPI rank memory allocation (min/avg/max) = 11.81 | 11.84 | 11.88 Mbytes
Step PotEng Temp Press KinEng Lx Ly Lz Pzz S/CPU Density 
 1222001    2999.6874    380.60404    108.77979    7041.8934    285.39226    285.39226    285.39226     108.8118            0  0.049762908 
 1230001    886.08642    390.59453    1.8914029    7226.7362    285.39226    285.39226    285.39226    1.8268016     1389.791  0.049762908 
Loop time of 5.75637 on 6 procs for 8000 steps with 6208 atoms

Performance: 1200.756 ns/day, 0.020 hours/ns, 1389.764 timesteps/s
99.7% CPU use with 6 MPI tasks x no OpenMP threads

MPI task timing breakdown:
Section |  min time  |  avg time  |  max time  |%varavg| %total
---------------------------------------------------------------
Pair    | 2.1951     | 3.0971     | 4.0311     |  32.3 | 53.80
Bond    | 0.069565   | 0.087291   | 0.10495    |   3.8 |  1.52
Neigh   | 0.48913    | 0.4913     | 0.49535    |   0.3 |  8.53
Comm    | 0.5848     | 1.6064     | 2.5956     |  49.0 | 27.91
Output  | 3.8147e-05 | 6.7194e-05 | 0.00015092 |   0.0 |  0.00
Modify  | 0.35001    | 0.43413    | 0.52409    |   8.4 |  7.54
Other   |            | 0.04016    |            |       |  0.70

Nlocal:        1034.67 ave        1220 max         812 min
Histogram: 1 0 0 0 1 1 2 0 0 1
Nghost:        2791.83 ave        3106 max        2371 min
Histogram: 2 0 0 0 1 0 0 0 0 3
Neighs:        19655.2 ave       24808 max       13377 min
Histogram: 1 0 0 0 0 3 0 1 0 1

Total # of neighbors = 117931
Ave neighs/atom = 18.996617
Ave special neighs/atom = 1.9793814
Neighbor list builds = 352
Dangerous builds = 0

if "${myDensity} > 1.0" then "jump SELF break"

next a
jump SELF loop
variable a loop 1000
change_box all x scale 0.95 y scale 0.95 z scale 0.95 remap
Changing box ...
  orthogonal box = (464.43868 457.30387 457.30387) to (735.56132 742.69613 742.69613)
  orthogonal box = (464.43868 464.43868 457.30387) to (735.56132 735.56132 742.69613)
  orthogonal box = (464.43868 464.43868 464.43868) to (735.56132 735.56132 735.56132)
run 8000
Per MPI rank memory allocation (min/avg/max) = 11.81 | 11.84 | 11.89 Mbytes
Step PotEng Temp Press KinEng Lx Ly Lz Pzz S/CPU Density 
 1230001    3041.7966    390.59453    129.23484    7226.7362    271.12265    271.12265    271.12265    127.85811            0  0.058041006 
 1238001    931.03307    383.70696  -0.88009116    7099.3032    271.12265    271.12265    271.12265   -1.0589562    1457.3297  0.058041006 
Loop time of 5.48959 on 6 procs for 8000 steps with 6208 atoms

Performance: 1259.111 ns/day, 0.019 hours/ns, 1457.305 timesteps/s
99.7% CPU use with 6 MPI tasks x no OpenMP threads

MPI task timing breakdown:
Section |  min time  |  avg time  |  max time  |%varavg| %total
---------------------------------------------------------------
Pair    | 2.2007     | 3.1396     | 3.7133     |  28.4 | 57.19
Bond    | 0.067118   | 0.087568   | 0.099086   |   3.8 |  1.60
Neigh   | 0.48098    | 0.48465    | 0.4889     |   0.4 |  8.83
Comm    | 0.68146    | 1.3052     | 2.3459     |  48.7 | 23.78
Output  | 3.9101e-05 | 6.2188e-05 | 0.00013304 |   0.0 |  0.00
Modify  | 0.33512    | 0.4349     | 0.49133    |   8.2 |  7.92
Other   |            | 0.0376     |            |       |  0.68

Nlocal:        1034.67 ave        1214 max         838 min
Histogram: 1 0 0 1 1 1 0 0 1 1
Nghost:        2888.67 ave        3297 max        2636 min
Histogram: 1 1 1 1 0 1 0 0 0 1
Neighs:        20680.2 ave       24069 max       15560 min
Histogram: 1 0 0 1 0 1 1 0 0 2

Total # of neighbors = 124081
Ave neighs/atom = 19.987274
Ave special neighs/atom = 1.9793814
Neighbor list builds = 347
Dangerous builds = 0

if "${myDensity} > 1.0" then "jump SELF break"

next a
jump SELF loop
variable a loop 1000
change_box all x scale 0.95 y scale 0.95 z scale 0.95 remap
Changing box ...
  orthogonal box = (471.21674 464.43868 464.43868) to (728.78326 735.56132 735.56132)
  orthogonal box = (471.21674 471.21674 464.43868) to (728.78326 728.78326 735.56132)
  orthogonal box = (471.21674 471.21674 471.21674) to (728.78326 728.78326 728.78326)
run 8000
Per MPI rank memory allocation (min/avg/max) = 11.82 | 11.84 | 11.89 Mbytes
Step PotEng Temp Press KinEng Lx Ly Lz Pzz S/CPU Density 
 1238001    2967.5944    383.70696    147.19918    7099.3032    257.56652    257.56652    257.56652    147.12609            0  0.067696173 
 1246001    927.51027    379.40919   -3.3798371    7019.7864    257.56652    257.56652    257.56652   -2.6625824     1394.811  0.067696173 
Loop time of 5.73565 on 6 procs for 8000 steps with 6208 atoms

Performance: 1205.094 ns/day, 0.020 hours/ns, 1394.784 timesteps/s
99.6% CPU use with 6 MPI tasks x no OpenMP threads

MPI task timing breakdown:
Section |  min time  |  avg time  |  max time  |%varavg| %total
---------------------------------------------------------------
Pair    | 2.851      | 3.4118     | 3.7711     |  20.5 | 59.48
Bond    | 0.074997   | 0.087785   | 0.09709    |   2.9 |  1.53
Neigh   | 0.48939    | 0.49347    | 0.49874    |   0.5 |  8.60
Comm    | 0.90218    | 1.265      | 1.8737     |  36.8 | 22.06
Output  | 4.1008e-05 | 7.8996e-05 | 0.00018001 |   0.0 |  0.00
Modify  | 0.37104    | 0.43529    | 0.48185    |   6.5 |  7.59
Other   |            | 0.04217    |            |       |  0.74

Nlocal:        1034.67 ave        1205 max         814 min
Histogram: 1 1 0 0 1 0 0 0 1 2
Nghost:        3219.17 ave        3791 max        2922 min
Histogram: 2 0 2 0 0 1 0 0 0 1
Neighs:        22379.0 ave       26461 max       16469 min
Histogram: 1 0 1 0 0 0 0 1 2 1

Total # of neighbors = 134274
Ave neighs/atom = 21.629188
Ave special neighs/atom = 1.9793814
Neighbor list builds = 348
Dangerous builds = 0

if "${myDensity} > 1.0" then "jump SELF break"

next a
jump SELF loop
variable a loop 1000
change_box all x scale 0.95 y scale 0.95 z scale 0.95 remap
Changing box ...
  orthogonal box = (477.65590 471.21674 471.21674) to (722.34410 728.78326 728.78326)
  orthogonal box = (477.65590 477.65590 471.21674) to (722.34410 722.34410 728.78326)
  orthogonal box = (477.65590 477.65590 477.65590) to (722.34410 722.34410 722.34410)
run 8000
Per MPI rank memory allocation (min/avg/max) = 11.82 | 11.84 | 11.89 Mbytes
Step PotEng Temp Press KinEng Lx Ly Lz Pzz S/CPU Density 
 1246001    2895.6122    379.40919    169.88191    7019.7864    244.68819    244.68819    244.68819    166.69985            0  0.078957484 
 1254001    822.82153    389.73041   -2.7852125    7210.7484    244.68819    244.68819    244.68819   -5.0880974    1240.2793  0.078957484 
Loop time of 6.45028 on 6 procs for 8000 steps with 6208 atoms

Performance: 1071.581 ns/day, 0.022 hours/ns, 1240.255 timesteps/s
99.6% CPU use with 6 MPI tasks x no OpenMP threads

MPI task timing breakdown:
Section |  min time  |  avg time  |  max time  |%varavg| %total
---------------------------------------------------------------
Pair    | 2.8101     | 3.6724     | 4.379      |  32.7 | 56.93
Bond    | 0.066663   | 0.088298   | 0.10538    |   5.1 |  1.37
Neigh   | 0.58153    | 0.58581    | 0.59099    |   0.5 |  9.08
Comm    | 0.8399     | 1.6193     | 2.5803     |  54.7 | 25.10
Output  | 4.0054e-05 | 8.0228e-05 | 0.00017691 |   0.0 |  0.00
Modify  | 0.32643    | 0.43463    | 0.51486    |  11.3 |  6.74
Other   |            | 0.04973    |            |       |  0.77

Nlocal:        1034.67 ave        1342 max         731 min
Histogram: 2 0 0 0 0 1 1 1 0 1
Nghost:        3709.00 ave        4223 max        3275 min
Histogram: 1 0 0 2 1 0 1 0 0 1
Neighs:        23322.0 ave       32748 max       15143 min
Histogram: 2 0 0 1 0 0 0 2 0 1

Total # of neighbors = 139932
Ave neighs/atom = 22.540593
Ave special neighs/atom = 1.9793814
Neighbor list builds = 356
Dangerous builds = 0

if "${myDensity} > 1.0" then "jump SELF break"

next a
jump SELF loop
variable a loop 1000
change_box all x scale 0.95 y scale 0.95 z scale 0.95 remap
Changing box ...
  orthogonal box = (483.77311 477.65590 477.65590) to (716.22689 722.34410 722.34410)
  orthogonal box = (483.77311 483.77311 477.65590) to (716.22689 716.22689 722.34410)
  orthogonal box = (483.77311 483.77311 483.77311) to (716.22689 716.22689 716.22689)
run 8000
Per MPI rank memory allocation (min/avg/max) = 11.82 | 11.85 | 11.90 Mbytes
Step PotEng Temp Press KinEng Lx Ly Lz Pzz S/CPU Density 
 1254001    2788.8904    389.73041    197.83475    7210.7484    232.45378    232.45378    232.45378     193.1658            0  0.092092123 
 1262001    751.53807    387.45837     0.959622    7168.7114    232.45378    232.45378    232.45378 -0.063540499    973.33321  0.092092123 
Loop time of 8.21929 on 6 procs for 8000 steps with 6208 atoms

Performance: 840.948 ns/day, 0.029 hours/ns, 973.320 timesteps/s
99.5% CPU use with 6 MPI tasks x no OpenMP threads

MPI task timing breakdown:
Section |  min time  |  avg time  |  max time  |%varavg| %total
---------------------------------------------------------------
Pair    | 2.7961     | 3.8506     | 5.7245     |  55.7 | 46.85
Bond    | 0.067532   | 0.088281   | 0.12268    |   6.2 |  1.07
Neigh   | 0.78009    | 0.78558    | 0.79045    |   0.4 |  9.56
Comm    | 0.95818    | 2.9886     | 4.1416     |  68.1 | 36.36
Output  | 4.0054e-05 | 8.6188e-05 | 0.00017691 |   0.0 |  0.00
Modify  | 0.33612    | 0.43552    | 0.6035     |  13.6 |  5.30
Other   |            | 0.07061    |            |       |  0.86

Nlocal:        1034.67 ave        1484 max         737 min
Histogram: 1 0 1 2 0 1 0 0 0 1
Nghost:        4080.83 ave        4511 max        3795 min
Histogram: 1 2 0 1 0 0 0 1 0 1
Neighs:        24845.8 ave       38443 max       15651 min
Histogram: 1 2 0 0 0 2 0 0 0 1

Total # of neighbors = 149075
Ave neighs/atom = 24.013370
Ave special neighs/atom = 1.9793814
Neighbor list builds = 355
Dangerous builds = 0

if "${myDensity} > 1.0" then "jump SELF break"

next a
jump SELF loop
variable a loop 1000
change_box all x scale 0.95 y scale 0.95 z scale 0.95 remap
Changing box ...
  orthogonal box = (489.58445 483.77311 483.77311) to (710.41555 716.22689 716.22689)
  orthogonal box = (489.58445 489.58445 483.77311) to (710.41555 710.41555 716.22689)
  orthogonal box = (489.58445 489.58445 489.58445) to (710.41555 710.41555 710.41555)
run 8000
Per MPI rank memory allocation (min/avg/max) = 11.83 | 11.85 | 11.91 Mbytes
Step PotEng Temp Press KinEng Lx Ly Lz Pzz S/CPU Density 
 1262001    2863.3113    387.45837     237.9453    7168.7114    220.83109    220.83109    220.83109    237.63912            0   0.10741172 
 1270001    798.45962    387.06988   -3.9867326    7161.5236    220.83109    220.83109    220.83109   -2.7001859    868.01704   0.10741172 
Loop time of 9.21652 on 6 procs for 8000 steps with 6208 atoms

Performance: 749.958 ns/day, 0.032 hours/ns, 868.007 timesteps/s
99.5% CPU use with 6 MPI tasks x no OpenMP threads

MPI task timing breakdown:
Section |  min time  |  avg time  |  max time  |%varavg| %total
---------------------------------------------------------------
Pair    | 2.8861     | 4.0956     | 6.539      |  59.4 | 44.44
Bond    | 0.072933   | 0.088421   | 0.12954    |   6.4 |  0.96
Neigh   | 0.90068    | 0.90318    | 0.90513    |   0.2 |  9.80
Comm    | 0.97779    | 3.6131     | 4.8935     |  67.8 | 39.20
Output  | 4.1008e-05 | 9.0877e-05 | 0.0001812  |   0.0 |  0.00
Modify  | 0.36157    | 0.43611    | 0.63914    |  14.2 |  4.73
Other   |            | 0.08003    |            |       |  0.87

Nlocal:        1034.67 ave        1471 max         828 min
Histogram: 1 1 3 0 0 0 0 0 0 1
Nghost:        4230.50 ave        4718 max        3885 min
Histogram: 1 1 1 1 0 0 0 1 0 1
Neighs:        26635.7 ave       39049 max       18271 min
Histogram: 1 1 0 1 1 1 0 0 0 1

Total # of neighbors = 159814
Ave neighs/atom = 25.743235
Ave special neighs/atom = 1.9793814
Neighbor list builds = 357
Dangerous builds = 0

if "${myDensity} > 1.0" then "jump SELF break"

next a
jump SELF loop
variable a loop 1000
change_box all x scale 0.95 y scale 0.95 z scale 0.95 remap
Changing box ...
  orthogonal box = (495.10523 489.58445 489.58445) to (704.89477 710.41555 710.41555)
  orthogonal box = (495.10523 495.10523 489.58445) to (704.89477 704.89477 710.41555)
  orthogonal box = (495.10523 495.10523 495.10523) to (704.89477 704.89477 704.89477)
run 8000
Per MPI rank memory allocation (min/avg/max) = 11.83 | 11.86 | 11.91 Mbytes
Step PotEng Temp Press KinEng Lx Ly Lz Pzz S/CPU Density 
 1270001    2806.9676    387.06988    273.61991    7161.5236    209.78954    209.78954    209.78954     277.4279            0   0.12527974 
 1278001    790.90996    387.57138     4.633234    7170.8023    209.78954    209.78954    209.78954   0.30273306     999.3146   0.12527974 
Loop time of 8.0056 on 6 procs for 8000 steps with 6208 atoms

Performance: 863.396 ns/day, 0.028 hours/ns, 999.301 timesteps/s
99.5% CPU use with 6 MPI tasks x no OpenMP threads

MPI task timing breakdown:
Section |  min time  |  avg time  |  max time  |%varavg| %total
---------------------------------------------------------------
Pair    | 2.9941     | 4.1241     | 5.3483     |  41.9 | 51.52
Bond    | 0.075032   | 0.088446   | 0.11448    |   4.7 |  1.10
Neigh   | 0.78       | 0.78148    | 0.78279    |   0.1 |  9.76
Comm    | 1.1684     | 2.5144     | 3.7133     |  57.6 | 31.41
Output  | 3.9101e-05 | 7.9354e-05 | 0.00018883 |   0.0 |  0.00
Modify  | 0.37047    | 0.43603    | 0.56565    |  10.5 |  5.45
Other   |            | 0.06104    |            |       |  0.76

Nlocal:        1034.67 ave        1260 max         754 min
Histogram: 1 0 1 1 0 0 0 1 0 2
Nghost:        4512.17 ave        4811 max        4234 min
Histogram: 2 0 1 0 0 0 0 1 1 1
Neighs:        26997.0 ave       34969 max       20581 min
Histogram: 3 0 0 0 0 0 0 1 1 1

Total # of neighbors = 161982
Ave neighs/atom = 26.092461
Ave special neighs/atom = 1.9793814
Neighbor list builds = 351
Dangerous builds = 0

if "${myDensity} > 1.0" then "jump SELF break"

next a
jump SELF loop
variable a loop 1000
change_box all x scale 0.95 y scale 0.95 z scale 0.95 remap
Changing box ...
  orthogonal box = (500.34997 495.10523 495.10523) to (699.65003 704.89477 704.89477)
  orthogonal box = (500.34997 500.34997 495.10523) to (699.65003 699.65003 704.89477)
  orthogonal box = (500.34997 500.34997 500.34997) to (699.65003 699.65003 699.65003)
run 8000
Per MPI rank memory allocation (min/avg/max) = 11.84 | 11.86 | 11.91 Mbytes
Step PotEng Temp Press KinEng Lx Ly Lz Pzz S/CPU Density 
 1278001    2976.2234    387.57138    328.33954    7170.8023    199.30006    199.30006    199.30006    325.38294            0   0.14612013 
 1286001    711.60991    379.31737   -2.6650639    7018.0874    199.30006    199.30006    199.30006   -5.8488157    976.66814   0.14612013 
Loop time of 8.19131 on 6 procs for 8000 steps with 6208 atoms

Performance: 843.821 ns/day, 0.028 hours/ns, 976.644 timesteps/s
99.5% CPU use with 6 MPI tasks x no OpenMP threads

MPI task timing breakdown:
Section |  min time  |  avg time  |  max time  |%varavg| %total
---------------------------------------------------------------
Pair    | 2.6865     | 4.4273     | 5.7011     |  50.6 | 54.05
Bond    | 0.058044   | 0.088972   | 0.10977    |   6.0 |  1.09
Neigh   | 0.80895    | 0.81059    | 0.81267    |   0.1 |  9.90
Comm    | 1.0028     | 2.3652     | 4.2512     |  74.6 | 28.87
Output  | 3.8147e-05 | 9.6043e-05 | 0.00027609 |   0.0 |  0.00
Modify  | 0.28446    | 0.43677    | 0.53954    |  13.1 |  5.33
Other   |            | 0.06243    |            |       |  0.76

Nlocal:        1034.67 ave        1277 max         631 min
Histogram: 1 0 0 0 0 2 0 1 0 2
Nghost:        4853.83 ave        5122 max        4516 min
Histogram: 1 1 0 0 1 0 0 0 1 2
Neighs:        29049.7 ave       38593 max       15863 min
Histogram: 1 0 0 0 2 0 0 0 2 1

Total # of neighbors = 174298
Ave neighs/atom = 28.076353
Ave special neighs/atom = 1.9793814
Neighbor list builds = 356
Dangerous builds = 0

if "${myDensity} > 1.0" then "jump SELF break"

next a
jump SELF loop
variable a loop 1000
change_box all x scale 0.95 y scale 0.95 z scale 0.95 remap
Changing box ...
  orthogonal box = (505.33247 500.34997 500.34997) to (694.66753 699.65003 699.65003)
  orthogonal box = (505.33247 505.33247 500.34997) to (694.66753 694.66753 699.65003)
  orthogonal box = (505.33247 505.33247 505.33247) to (694.66753 694.66753 694.66753)
run 8000
Per MPI rank memory allocation (min/avg/max) = 11.84 | 11.86 | 11.91 Mbytes
Step PotEng Temp Press KinEng Lx Ly Lz Pzz S/CPU Density 
 1286001    2775.9268    379.31737    374.49162    7018.0874    189.33506    189.33506    189.33506    372.51562            0   0.17042732 
 1294001    560.97479    389.01969    3.7162682    7197.5987    189.33506    189.33506    189.33506     1.645626    858.54753   0.17042732 
Loop time of 9.31818 on 6 procs for 8000 steps with 6208 atoms

Performance: 741.776 ns/day, 0.032 hours/ns, 858.537 timesteps/s
99.5% CPU use with 6 MPI tasks x no OpenMP threads

MPI task timing breakdown:
Section |  min time  |  avg time  |  max time  |%varavg| %total
---------------------------------------------------------------
Pair    | 2.8115     | 4.7991     | 6.6804     |  58.0 | 51.50
Bond    | 0.0566     | 0.090154   | 0.11097    |   6.2 |  0.97
Neigh   | 0.92664    | 0.92897    | 0.93166    |   0.2 |  9.97
Comm    | 1.0159     | 2.9938     | 5.14       |  78.1 | 32.13
Output  | 3.9101e-05 | 8.138e-05  | 0.00018907 |   0.0 |  0.00
Modify  | 0.27584    | 0.4378     | 0.53289    |  13.2 |  4.70
Other   |            | 0.06828    |            |       |  0.73

Nlocal:        1034.67 ave        1279 max         646 min
Histogram: 1 0 0 0 1 1 0 1 0 2
Nghost:        5124.17 ave        5589 max        4766 min
Histogram: 1 1 0 1 1 0 1 0 0 1
Neighs:        31430.7 ave       45768 max       18696 min
Histogram: 1 1 0 1 0 1 1 0 0 1

Total # of neighbors = 188584
Ave neighs/atom = 30.377577
Ave special neighs/atom = 1.9793814
Neighbor list builds = 354
Dangerous builds = 0

if "${myDensity} > 1.0" then "jump SELF break"

next a
jump SELF loop
variable a loop 1000
change_box all x scale 0.95 y scale 0.95 z scale 0.95 remap
Changing box ...
  orthogonal box = (510.06585 505.33247 505.33247) to (689.93415 694.66753 694.66753)
  orthogonal box = (510.06585 510.06585 505.33247) to (689.93415 689.93415 694.66753)
  orthogonal box = (510.06585 510.06585 510.06585) to (689.93415 689.93415 689.93415)
run 8000
Per MPI rank memory allocation (min/avg/max) = 11.85 | 11.87 | 11.92 Mbytes
Step PotEng Temp Press KinEng Lx Ly Lz Pzz S/CPU Density 
 1294001    2736.6321    389.01969    451.49153    7197.5987     179.8683     179.8683     179.8683    448.35285            0   0.19877804 
 1302001    648.59694    381.21977    2.4921887    7053.2854     179.8683     179.8683     179.8683    5.7132956    802.29191   0.19877804 
Loop time of 9.97154 on 6 procs for 8000 steps with 6208 atoms

Performance: 693.173 ns/day, 0.035 hours/ns, 802.283 timesteps/s
99.5% CPU use with 6 MPI tasks x no OpenMP threads

MPI task timing breakdown:
Section |  min time  |  avg time  |  max time  |%varavg| %total
---------------------------------------------------------------
Pair    | 3.2339     | 5.0311     | 6.9744     |  60.3 | 50.45
Bond    | 0.059959   | 0.089527   | 0.11236    |   6.3 |  0.90
Neigh   | 1.0429     | 1.0449     | 1.0469     |   0.1 | 10.48
Comm    | 1.236      | 3.2887     | 5.2268     |  79.1 | 32.98
Output  | 0.004755   | 0.0049509  | 0.0052321  |   0.2 |  0.05
Modify  | 0.29081    | 0.4369     | 0.54905    |  13.7 |  4.38
Other   |            | 0.0754     |            |       |  0.76

Nlocal:        1034.67 ave        1396 max         695 min
Histogram: 1 0 0 3 0 0 0 0 1 1
Nghost:        5609.50 ave        6069 max        5329 min
Histogram: 1 2 1 0 0 0 1 0 0 1
Neighs:        32683.0 ave       48175 max       20576 min
Histogram: 1 1 0 2 0 0 0 0 1 1

Total # of neighbors = 196098
Ave neighs/atom = 31.587951
Ave special neighs/atom = 1.9793814
Neighbor list builds = 358
Dangerous builds = 0

if "${myDensity} > 1.0" then "jump SELF break"

next a
jump SELF loop
variable a loop 1000
change_box all x scale 0.95 y scale 0.95 z scale 0.95 remap
Changing box ...
  orthogonal box = (514.56256 510.06585 510.06585) to (685.43744 689.93415 689.93415)
  orthogonal box = (514.56256 514.56256 510.06585) to (685.43744 685.43744 689.93415)
  orthogonal box = (514.56256 514.56256 514.56256) to (685.43744 685.43744 685.43744)
run 8000
Per MPI rank memory allocation (min/avg/max) = 11.85 | 11.87 | 11.92 Mbytes
Step PotEng Temp Press KinEng Lx Ly Lz Pzz S/CPU Density 
 1302001    2790.6709    381.21977    517.10775    7053.2854    170.87489    170.87489    170.87489    519.00242            0   0.23184492 
 1310001    470.89612    390.04107  -0.96508089    7216.4961    170.87489    170.87489    170.87489   -3.4164842    777.55419   0.23184492 
Loop time of 10.2888 on 6 procs for 8000 steps with 6208 atoms

Performance: 671.797 ns/day, 0.036 hours/ns, 777.543 timesteps/s
99.3% CPU use with 6 MPI tasks x no OpenMP threads

MPI task timing breakdown:
Section |  min time  |  avg time  |  max time  |%varavg| %total
---------------------------------------------------------------
Pair    | 3.9798     | 5.4212     | 7.2774     |  48.1 | 52.69
Bond    | 0.067843   | 0.089831   | 0.11245    |   4.9 |  0.87
Neigh   | 1.0978     | 1.0993     | 1.1006     |   0.1 | 10.68
Comm    | 1.2124     | 3.1728     | 4.7252     |  66.5 | 30.84
Output  | 4.4107e-05 | 8.5195e-05 | 0.00021696 |   0.0 |  0.00
Modify  | 0.32676    | 0.43642    | 0.54029    |  10.7 |  4.24
Other   |            | 0.06918    |            |       |  0.67

Nlocal:        1034.67 ave        1175 max         810 min
Histogram: 1 0 0 0 1 1 1 0 0 2
Nghost:        5982.17 ave        6266 max        5582 min
Histogram: 1 0 1 0 0 0 1 1 1 1
Neighs:        35218.8 ave       42465 max       26722 min
Histogram: 1 0 0 1 0 2 0 0 1 1

Total # of neighbors = 211313
Ave neighs/atom = 34.038821
Ave special neighs/atom = 1.9793814
Neighbor list builds = 353
Dangerous builds = 0

if "${myDensity} > 1.0" then "jump SELF break"

next a
jump SELF loop
variable a loop 1000
change_box all x scale 0.95 y scale 0.95 z scale 0.95 remap
Changing box ...
  orthogonal box = (518.83443 514.56256 514.56256) to (681.16557 685.43744 685.43744)
  orthogonal box = (518.83443 518.83443 514.56256) to (681.16557 681.16557 685.43744)
  orthogonal box = (518.83443 518.83443 518.83443) to (681.16557 681.16557 681.16557)
run 8000
Per MPI rank memory allocation (min/avg/max) = 11.86 | 11.88 | 11.92 Mbytes
Step PotEng Temp Press KinEng Lx Ly Lz Pzz S/CPU Density 
 1310001    2577.6371    390.04107    604.86131    7216.4961    162.33115    162.33115    162.33115    611.43375            0   0.27041251 
 1318001    383.94025    383.44616    5.5743803    7094.4779    162.33115    162.33115    162.33115    2.3866532    821.76326   0.27041251 
Loop time of 9.73528 on 6 procs for 8000 steps with 6208 atoms

Performance: 709.995 ns/day, 0.034 hours/ns, 821.753 timesteps/s
99.5% CPU use with 6 MPI tasks x no OpenMP threads

MPI task timing breakdown:
Section |  min time  |  avg time  |  max time  |%varavg| %total
---------------------------------------------------------------
Pair    | 4.6526     | 5.7671     | 6.6024     |  25.8 | 59.24
Bond    | 0.079357   | 0.09112    | 0.099802   |   2.4 |  0.94
Neigh   | 1.0466     | 1.0482     | 1.0496     |   0.1 | 10.77
Comm    | 1.4653     | 2.3326     | 3.4943     |  42.3 | 23.96
Output  | 4.3869e-05 | 7.7486e-05 | 0.000175   |   0.0 |  0.00
Modify  | 0.38553    | 0.43773    | 0.47999    |   4.9 |  4.50
Other   |            | 0.05852    |            |       |  0.60

Nlocal:        1034.67 ave        1213 max         820 min
Histogram: 1 0 0 0 2 0 2 0 0 1
Nghost:        6461.50 ave        6764 max        6314 min
Histogram: 1 2 0 1 1 0 0 0 0 1
Neighs:        37656.0 ave       44619 max       25183 min
Histogram: 1 0 0 0 0 0 2 1 1 1

Total # of neighbors = 225936
Ave neighs/atom = 36.394330
Ave special neighs/atom = 1.9793814
Neighbor list builds = 356
Dangerous builds = 0

if "${myDensity} > 1.0" then "jump SELF break"

next a
jump SELF loop
variable a loop 1000
change_box all x scale 0.95 y scale 0.95 z scale 0.95 remap
Changing box ...
  orthogonal box = (522.89271 518.83443 518.83443) to (677.10729 681.16557 681.16557)
  orthogonal box = (522.89271 522.89271 518.83443) to (677.10729 677.10729 681.16557)
  orthogonal box = (522.89271 522.89271 522.89271) to (677.10729 677.10729 677.10729)
run 8000
Per MPI rank memory allocation (min/avg/max) = 11.86 | 11.88 | 11.93 Mbytes
Step PotEng Temp Press KinEng Lx Ly Lz Pzz S/CPU Density 
 1318001    2573.8998    383.44616    714.88863    7094.4779    154.21459    154.21459    154.21459    717.56982            0   0.31539584 
 1326001    389.25635    389.25584     13.26439    7201.9679    154.21459    154.21459    154.21459    10.651391    717.68227   0.31539584 
Loop time of 11.1471 on 6 procs for 8000 steps with 6208 atoms

Performance: 620.071 ns/day, 0.039 hours/ns, 717.675 timesteps/s
98.9% CPU use with 6 MPI tasks x no OpenMP threads

MPI task timing breakdown:
Section |  min time  |  avg time  |  max time  |%varavg| %total
---------------------------------------------------------------
Pair    | 5.2721     | 6.3269     | 7.7377     |  34.4 | 56.76
Bond    | 0.080146   | 0.090625   | 0.10452    |   2.8 |  0.81
Neigh   | 1.1902     | 1.1919     | 1.1944     |   0.1 | 10.69
Comm    | 1.5607     | 3.0112     | 4.098      |  51.1 | 27.01
Output  | 4.9829e-05 | 8.1221e-05 | 0.00016594 |   0.0 |  0.00
Modify  | 0.39349    | 0.43771    | 0.51006    |   6.5 |  3.93
Other   |            | 0.0887     |            |       |  0.80

Nlocal:        1034.67 ave        1236 max         909 min
Histogram: 2 2 0 0 0 0 0 0 0 2
Nghost:        7012.50 ave        7144 max        6922 min
Histogram: 1 2 1 0 0 0 0 1 0 1
Neighs:        41646.8 ave       54919 max       33835 min
Histogram: 3 1 0 0 0 0 0 0 1 1

Total # of neighbors = 249881
Ave neighs/atom = 40.251450
Ave special neighs/atom = 1.9793814
Neighbor list builds = 351
Dangerous builds = 0

if "${myDensity} > 1.0" then "jump SELF break"

next a
jump SELF loop
variable a loop 1000
change_box all x scale 0.95 y scale 0.95 z scale 0.95 remap
Changing box ...
  orthogonal box = (526.74807 522.89271 522.89271) to (673.25193 677.10729 677.10729)
  orthogonal box = (526.74807 526.74807 522.89271) to (673.25193 673.25193 677.10729)
  orthogonal box = (526.74807 526.74807 526.74807) to (673.25193 673.25193 673.25193)
run 8000
Per MPI rank memory allocation (min/avg/max) = 11.87 | 11.89 | 11.94 Mbytes
Step PotEng Temp Press KinEng Lx Ly Lz Pzz S/CPU Density 
 1326001    2655.4078    389.25584    852.26408    7201.9679    146.50386    146.50386    146.50386    843.96747            0   0.36786218 
 1334001    248.25278     384.8591   -19.748638      7120.62    146.50386    146.50386    146.50386   -13.835996    659.98172   0.36786218 
Loop time of 12.1217 on 6 procs for 8000 steps with 6208 atoms

Performance: 570.218 ns/day, 0.042 hours/ns, 659.975 timesteps/s
98.3% CPU use with 6 MPI tasks x no OpenMP threads

MPI task timing breakdown:
Section |  min time  |  avg time  |  max time  |%varavg| %total
---------------------------------------------------------------
Pair    | 5.7581     | 7.0397     | 8.3688     |  39.0 | 58.08
Bond    | 0.081582   | 0.090961   | 0.10063    |   2.6 |  0.75
Neigh   | 1.3004     | 1.3017     | 1.3036     |   0.1 | 10.74
Comm    | 1.8209     | 3.1396     | 4.4422     |  58.8 | 25.90
Output  | 3.9816e-05 | 7.1764e-05 | 0.00016689 |   0.0 |  0.00
Modify  | 0.38394    | 0.4381     | 0.48906    |   6.0 |  3.61
Other   |            | 0.1115     |            |       |  0.92

Nlocal:        1034.67 ave        1093 max         964 min
Histogram: 1 1 0 0 0 1 1 0 1 1
Nghost:        7631.67 ave        7720 max        7533 min
Histogram: 1 0 1 0 0 0 3 0 0 1
Neighs:        46340.7 ave       51662 max       40920 min
Histogram: 2 0 0 0 0 1 0 2 0 1

Total # of neighbors = 278044
Ave neighs/atom = 44.788015
Ave special neighs/atom = 1.9793814
Neighbor list builds = 356
Dangerous builds = 0

if "${myDensity} > 1.0" then "jump SELF break"

next a
jump SELF loop
variable a loop 1000
change_box all x scale 0.95 y scale 0.95 z scale 0.95 remap
Changing box ...
  orthogonal box = (530.41067 526.74807 526.74807) to (669.58933 673.25193 673.25193)
  orthogonal box = (530.41067 530.41067 526.74807) to (669.58933 669.58933 673.25193)
  orthogonal box = (530.41067 530.41067 530.41067) to (669.58933 669.58933 669.58933)
run 8000
Per MPI rank memory allocation (min/avg/max) = 11.88 | 11.90 | 11.94 Mbytes
Step PotEng Temp Press KinEng Lx Ly Lz Pzz S/CPU Density 
 1334001    2259.3602     384.8591    946.90363      7120.62    139.17867    139.17867    139.17867    946.77812            0   0.42905634 
 1342001    6.1989405    387.12646   -3.8027729    7162.5705    139.17867    139.17867    139.17867   -13.794226    656.99035   0.42905634 
Loop time of 12.1768 on 6 procs for 8000 steps with 6208 atoms

Performance: 567.635 ns/day, 0.042 hours/ns, 656.984 timesteps/s
95.9% CPU use with 6 MPI tasks x no OpenMP threads

MPI task timing breakdown:
Section |  min time  |  avg time  |  max time  |%varavg| %total
---------------------------------------------------------------
Pair    | 7.0127     | 7.9554     | 8.3564     |  18.3 | 65.33
Bond    | 0.084996   | 0.093229   | 0.097449   |   1.4 |  0.77
Neigh   | 1.2932     | 1.2943     | 1.2953     |   0.1 | 10.63
Comm    | 1.8105     | 2.214      | 3.2059     |  36.4 | 18.18
Output  | 4.1962e-05 | 6.1512e-05 | 0.00014305 |   0.0 |  0.00
Modify  | 0.40536    | 0.43856    | 0.45748    |   2.7 |  3.60
Other   |            | 0.1812     |            |       |  1.49

Nlocal:        1034.67 ave        1081 max         916 min
Histogram: 1 0 0 0 0 0 0 2 1 2
Nghost:        8229.67 ave        8363 max        8154 min
Histogram: 3 0 0 0 1 1 0 0 0 1
Neighs:        52216.5 ave       54862 max       42563 min
Histogram: 1 0 0 0 0 0 0 0 1 4

Total # of neighbors = 313299
Ave neighs/atom = 50.466978
Ave special neighs/atom = 1.9793814
Neighbor list builds = 352
Dangerous builds = 0

if "${myDensity} > 1.0" then "jump SELF break"

next a
jump SELF loop
variable a loop 1000
change_box all x scale 0.95 y scale 0.95 z scale 0.95 remap
Changing box ...
  orthogonal box = (533.89013 530.41067 530.41067) to (666.10987 669.58933 669.58933)
  orthogonal box = (533.89013 533.89013 530.41067) to (666.10987 666.10987 669.58933)
  orthogonal box = (533.89013 533.89013 533.89013) to (666.10987 666.10987 666.10987)
run 8000
Per MPI rank memory allocation (min/avg/max) = 11.89 | 11.91 | 11.95 Mbytes
Step PotEng Temp Press KinEng Lx Ly Lz Pzz S/CPU Density 
 1342001    2135.8996    387.12646    1131.1638    7162.5705    132.21973    132.21973    132.21973    1128.5228            0    0.5004302 
 1350001    -208.0849    380.30703    21.355983    7036.3981    132.21973    132.21973    132.21973    25.827576    596.39316    0.5004302 
Loop time of 13.4141 on 6 procs for 8000 steps with 6208 atoms

Performance: 515.279 ns/day, 0.047 hours/ns, 596.388 timesteps/s
95.9% CPU use with 6 MPI tasks x no OpenMP threads

MPI task timing breakdown:
Section |  min time  |  avg time  |  max time  |%varavg| %total
---------------------------------------------------------------
Pair    | 8.0069     | 8.8491     | 9.6003     |  20.4 | 65.97
Bond    | 0.087293   | 0.097814   | 0.11924    |   3.3 |  0.73
Neigh   | 1.2969     | 1.2976     | 1.2989     |   0.1 |  9.67
Comm    | 1.7815     | 2.5324     | 3.4253     |  38.6 | 18.88
Output  | 4.6968e-05 | 6.9181e-05 | 0.00014901 |   0.0 |  0.00
Modify  | 0.4132     | 0.43909    | 0.46048    |   2.3 |  3.27
Other   |            | 0.1981     |            |       |  1.48

Nlocal:        1034.67 ave        1122 max         906 min
Histogram: 1 0 1 0 0 0 1 1 0 2
Nghost:        8740.50 ave        8881 max        8577 min
Histogram: 1 1 0 0 0 1 0 1 1 1
Neighs:        59042.5 ave       66428 max       44725 min
Histogram: 1 0 0 0 1 0 0 2 0 2

Total # of neighbors = 354255
Ave neighs/atom = 57.064272
Ave special neighs/atom = 1.9793814
Neighbor list builds = 351
Dangerous builds = 0

if "${myDensity} > 1.0" then "jump SELF break"

next a
jump SELF loop
variable a loop 1000
change_box all x scale 0.95 y scale 0.95 z scale 0.95 remap
Changing box ...
  orthogonal box = (537.19563 533.89013 533.89013) to (662.80437 666.10987 666.10987)
  orthogonal box = (537.19563 537.19563 533.89013) to (662.80437 662.80437 666.10987)
  orthogonal box = (537.19563 537.19563 537.19563) to (662.80437 662.80437 662.80437)
run 8000
Per MPI rank memory allocation (min/avg/max) = 11.89 | 11.92 | 11.96 Mbytes
Step PotEng Temp Press KinEng Lx Ly Lz Pzz S/CPU Density 
 1350001    2106.5331    380.30703    1371.0897    7036.3981    125.60875    125.60875    125.60875    1373.5487            0   0.58367716 
 1358001    -200.5202    387.68036    7.4724649    7172.8186    125.60875    125.60875    125.60875    2.2342069    516.82529   0.58367716 
Loop time of 15.4792 on 6 procs for 8000 steps with 6208 atoms

Performance: 446.533 ns/day, 0.054 hours/ns, 516.821 timesteps/s
95.9% CPU use with 6 MPI tasks x no OpenMP threads

MPI task timing breakdown:
Section |  min time  |  avg time  |  max time  |%varavg| %total
---------------------------------------------------------------
Pair    | 8.8329     | 10.14      | 10.928     |  22.5 | 65.51
Bond    | 0.089244   | 0.092643   | 0.096874   |   0.9 |  0.60
Neigh   | 1.541      | 1.542      | 1.5428     |   0.1 |  9.96
Comm    | 2.2747     | 3.0502     | 4.3967     |  41.5 | 19.71
Output  | 4.4107e-05 | 6.7035e-05 | 0.00016689 |   0.0 |  0.00
Modify  | 0.41281    | 0.43919    | 0.45416    |   2.1 |  2.84
Other   |            | 0.2154     |            |       |  1.39

Nlocal:        1034.67 ave        1108 max         990 min
Histogram: 3 0 0 0 1 0 0 1 0 1
Nghost:        9535.50 ave        9673 max        9401 min
Histogram: 2 0 0 1 0 0 0 1 1 1
Neighs:        66851.3 ave       75202 max       59492 min
Histogram: 1 1 1 0 0 1 0 1 0 1

Total # of neighbors = 401108
Ave neighs/atom = 64.611469
Ave special neighs/atom = 1.9793814
Neighbor list builds = 362
Dangerous builds = 0

if "${myDensity} > 1.0" then "jump SELF break"

next a
jump SELF loop
variable a loop 1000
change_box all x scale 0.95 y scale 0.95 z scale 0.95 remap
Changing box ...
  orthogonal box = (540.33585 537.19563 537.19563) to (659.66415 662.80437 662.80437)
  orthogonal box = (540.33585 540.33585 537.19563) to (659.66415 659.66415 662.80437)
  orthogonal box = (540.33585 540.33585 540.33585) to (659.66415 659.66415 659.66415)
run 8000
Per MPI rank memory allocation (min/avg/max) = 11.90 | 11.92 | 11.97 Mbytes
Step PotEng Temp Press KinEng Lx Ly Lz Pzz S/CPU Density 
 1358001    2094.1489    387.68036    1624.9771    7172.8186    119.32831    119.32831    119.32831    1631.5574            0   0.68077231 
 1366001   -614.04947    390.57086    25.161209    7226.2984    119.32831    119.32831    119.32831    29.721716    485.09015   0.68077231 
Loop time of 16.4919 on 6 procs for 8000 steps with 6208 atoms

Performance: 419.115 ns/day, 0.057 hours/ns, 485.087 timesteps/s
95.8% CPU use with 6 MPI tasks x no OpenMP threads

MPI task timing breakdown:
Section |  min time  |  avg time  |  max time  |%varavg| %total
---------------------------------------------------------------
Pair    | 11.294     | 11.631     | 11.818     |   5.3 | 70.53
Bond    | 0.089378   | 0.09299    | 0.097139   |   0.9 |  0.56
Neigh   | 1.6742     | 1.6752     | 1.6761     |   0.0 | 10.16
Comm    | 2.2448     | 2.423      | 2.7758     |  11.8 | 14.69
Output  | 4.0054e-05 | 6.0836e-05 | 0.000144   |   0.0 |  0.00
Modify  | 0.42802    | 0.43924    | 0.44541    |   0.8 |  2.66
Other   |            | 0.2301     |            |       |  1.40

Nlocal:        1034.67 ave        1044 max        1019 min
Histogram: 1 0 0 1 1 0 0 0 0 3
Nghost:        10427.8 ave       10442 max       10413 min
Histogram: 2 0 0 1 0 0 0 1 1 1
Neighs:        77234.5 ave       78725 max       75686 min
Histogram: 2 0 0 0 0 1 1 0 1 1

Total # of neighbors = 463407
Ave neighs/atom = 74.646746
Ave special neighs/atom = 1.9793814
Neighbor list builds = 360
Dangerous builds = 0

if "${myDensity} > 1.0" then "jump SELF break"

next a
jump SELF loop
variable a loop 1000
change_box all x scale 0.95 y scale 0.95 z scale 0.95 remap
Changing box ...
  orthogonal box = (543.31905 540.33585 540.33585) to (656.68095 659.66415 659.66415)
  orthogonal box = (543.31905 543.31905 540.33585) to (656.68095 656.68095 659.66415)
  orthogonal box = (543.31905 543.31905 543.31905) to (656.68095 656.68095 656.68095)
run 8000
Per MPI rank memory allocation (min/avg/max) = 11.92 | 11.94 | 11.98 Mbytes
Step PotEng Temp Press KinEng Lx Ly Lz Pzz S/CPU Density 
 1366001    1787.2871    390.57086    1948.6325    7226.2984    113.36189    113.36189    113.36189    1961.6801            0   0.79401931 
 1374001   -1116.8743    396.36286    93.406011    7333.4612    113.36189    113.36189    113.36189    78.169135    420.31458   0.79401931 
Loop time of 19.0335 on 6 procs for 8000 steps with 6208 atoms

Performance: 363.149 ns/day, 0.066 hours/ns, 420.312 timesteps/s
96.1% CPU use with 6 MPI tasks x no OpenMP threads

MPI task timing breakdown:
Section |  min time  |  avg time  |  max time  |%varavg| %total
---------------------------------------------------------------
Pair    | 13.433     | 13.59      | 13.771     |   2.9 | 71.40
Bond    | 0.096469   | 0.097522   | 0.099758   |   0.3 |  0.51
Neigh   | 1.9876     | 1.9889     | 1.9905     |   0.1 | 10.45
Comm    | 2.5061     | 2.6722     | 2.7871     |   6.4 | 14.04
Output  | 4.0054e-05 | 6.6717e-05 | 0.00016809 |   0.0 |  0.00
Modify  | 0.43571    | 0.43937    | 0.44281    |   0.4 |  2.31
Other   |            | 0.2454     |            |       |  1.29

Nlocal:        1034.67 ave        1074 max        1003 min
Histogram: 1 1 0 1 1 0 1 0 0 1
Nghost:        11340.0 ave       11405 max       11291 min
Histogram: 1 2 0 0 0 1 0 1 0 1
Neighs:        90148.3 ave       95472 max       85586 min
Histogram: 1 1 0 0 1 1 1 0 0 1

Total # of neighbors = 540890
Ave neighs/atom = 87.127899
Ave special neighs/atom = 1.9793814
Neighbor list builds = 372
Dangerous builds = 0

if "${myDensity} > 1.0" then "jump SELF break"

next a
jump SELF loop
variable a loop 1000
change_box all x scale 0.95 y scale 0.95 z scale 0.95 remap
Changing box ...
  orthogonal box = (546.15310 543.31905 543.31905) to (653.84690 656.68095 656.68095)
  orthogonal box = (546.15310 546.15310 543.31905) to (653.84690 653.84690 656.68095)
  orthogonal box = (546.15310 546.15310 546.15310) to (653.84690 653.84690 653.84690)
run 8000
Per MPI rank memory allocation (min/avg/max) = 12.31 | 12.33 | 12.37 Mbytes
Step PotEng Temp Press KinEng Lx Ly Lz Pzz S/CPU Density 
 1374001    1611.6216    396.36286    2453.7383    7333.4612     107.6938     107.6938     107.6938    2450.8383            0   0.92610504 
 1382001   -1766.2291    389.34679    172.49853    7203.6507     107.6938     107.6938     107.6938    217.91267    374.46657   0.92610504 
Loop time of 21.3638 on 6 procs for 8000 steps with 6208 atoms

Performance: 323.537 ns/day, 0.074 hours/ns, 374.464 timesteps/s
96.2% CPU use with 6 MPI tasks x no OpenMP threads

MPI task timing breakdown:
Section |  min time  |  avg time  |  max time  |%varavg| %total
---------------------------------------------------------------
Pair    | 15.615     | 15.803     | 15.958     |   2.9 | 73.97
Bond    | 0.097484   | 0.09816    | 0.099105   |   0.2 |  0.46
Neigh   | 1.9847     | 1.9865     | 1.9884     |   0.1 |  9.30
Comm    | 2.5717     | 2.7747     | 2.9899     |   7.7 | 12.99
Output  | 4.6015e-05 | 6.5962e-05 | 0.00015783 |   0.0 |  0.00
Modify  | 0.43567    | 0.43921    | 0.44418    |   0.4 |  2.06
Other   |            | 0.2617     |            |       |  1.22

Nlocal:        1034.67 ave        1062 max        1011 min
Histogram: 1 0 1 1 1 0 0 1 0 1
Nghost:        12468.7 ave       12542 max       12408 min
Histogram: 1 1 0 0 1 1 1 0 0 1
Neighs:        105157.0 ave      107974 max      102659 min
Histogram: 2 0 0 1 0 1 0 0 1 1

Total # of neighbors = 630941
Ave neighs/atom = 101.63354
Ave special neighs/atom = 1.9793814
Neighbor list builds = 364
Dangerous builds = 0

if "${myDensity} > 1.0" then "jump SELF break"

next a
jump SELF loop
variable a loop 1000
change_box all x scale 0.95 y scale 0.95 z scale 0.95 remap
Changing box ...
  orthogonal box = (548.84545 546.15310 546.15310) to (651.15455 653.84690 653.84690)
  orthogonal box = (548.84545 548.84545 546.15310) to (651.15455 651.15455 653.84690)
  orthogonal box = (548.84545 548.84545 548.84545) to (651.15455 651.15455 651.15455)
run 8000
Per MPI rank memory allocation (min/avg/max) = 12.32 | 12.34 | 12.39 Mbytes
Step PotEng Temp Press KinEng Lx Ly Lz Pzz S/CPU Density 
 1382001    1359.1394    389.34679    3152.2273    7203.6507    102.30911    102.30911    102.30911    3285.4832            0    1.0801633 
 1390001   -2311.3371    384.53895    600.48867    7114.6966    102.30911    102.30911    102.30911    588.86703    323.79787    1.0801633 
Loop time of 24.7069 on 6 procs for 8000 steps with 6208 atoms

Performance: 279.760 ns/day, 0.086 hours/ns, 323.796 timesteps/s
96.5% CPU use with 6 MPI tasks x no OpenMP threads

MPI task timing breakdown:
Section |  min time  |  avg time  |  max time  |%varavg| %total
---------------------------------------------------------------
Pair    | 17.945     | 18.456     | 19.017     |   8.7 | 74.70
Bond    | 0.092419   | 0.094627   | 0.099168   |   1.0 |  0.38
Neigh   | 2.3208     | 2.3236     | 2.3258     |   0.1 |  9.40
Comm    | 2.5872     | 3.1153     | 3.6378     |  20.8 | 12.61
Output  | 4.1008e-05 | 6.9062e-05 | 0.00017309 |   0.0 |  0.00
Modify  | 0.43661    | 0.43931    | 0.44293    |   0.3 |  1.78
Other   |            | 0.2778     |            |       |  1.12

Nlocal:        1034.67 ave        1037 max        1031 min
Histogram: 1 1 0 0 0 0 0 0 3 1
Nghost:        13748.8 ave       13774 max       13721 min
Histogram: 1 0 0 0 2 1 1 0 0 1
Neighs:        122979.0 ave      127598 max      121033 min
Histogram: 2 0 2 1 0 0 0 0 0 1

Total # of neighbors = 737874
Ave neighs/atom = 118.85857
Ave special neighs/atom = 1.9793814
Neighbor list builds = 357
Dangerous builds = 0

if "${myDensity} > 1.0" then "jump SELF break"
jump SELF break

####Replicate to form slab

replicate 1 1 7
Replicating atoms ...
  orthogonal box = (548.84545 548.84545 548.84545) to (651.15455 651.15455 1265.0092)
  1 by 1 by 6 MPI processor grid
  43456 atoms
  43008 bonds
Finding 1-2 1-3 1-4 neighbors ...
  special bond factors lj:    0        1        1       
  special bond factors coul:  0        1        1       
     2 = max # of 1-2 neighbors
     6 = max # of special neighbors
  special bonds CPU = 0.001 seconds
  replicate CPU = 0.004 seconds

run 1
Per MPI rank memory allocation (min/avg/max) = 26.64 | 26.66 | 26.70 Mbytes
Step PotEng Temp Press KinEng Lx Ly Lz Pzz S/CPU Density 
 1390001    -16179.36    384.48585    600.48867    49802.876    102.30911    102.30911    716.16376    588.86703            0    1.0801633 
 1390002   -16206.598    384.60603     600.0381    49818.443    102.30911    102.30911    716.16376    589.28359    48.339296    1.0801633 
Loop time of 0.020736 on 6 procs for 1 steps with 43456 atoms

Performance: 41.667 ns/day, 0.576 hours/ns, 48.225 timesteps/s
99.1% CPU use with 6 MPI tasks x no OpenMP threads

MPI task timing breakdown:
Section |  min time  |  avg time  |  max time  |%varavg| %total
---------------------------------------------------------------
Pair    | 0.019054   | 0.019358   | 0.019568   |   0.1 | 93.36
Bond    | 0.00014997 | 0.00015716 | 0.00016379 |   0.0 |  0.76
Neigh   | 0          | 0          | 0          |   0.0 |  0.00
Comm    | 0.00042892 | 0.00060399 | 0.00091791 |   0.0 |  2.91
Output  | 9.203e-05  | 0.00013602 | 0.00021911 |   0.0 |  0.66
Modify  | 0.00037313 | 0.00037889 | 0.00038409 |   0.0 |  1.83
Other   |            | 0.0001018  |            |       |  0.49

Nlocal:        7242.67 ave        7252 max        7234 min
Histogram: 1 1 0 1 0 1 0 0 1 1
Nghost:        29353.5 ave       29378 max       29323 min
Histogram: 1 0 0 0 1 1 2 0 0 1
Neighs:        860853.0 ave      866781 max      855664 min
Histogram: 3 0 0 0 0 0 0 0 2 1

Total # of neighbors = 5165118
Ave neighs/atom = 118.85857
Ave special neighs/atom = 1.9793814
Neighbor list builds = 0
Dangerous builds = 0

###Delete replicated atoms

group under molecule < 129
12416 atoms in group under
group over molecule  > 192
24832 atoms in group over
group replica union under over
37248 atoms in group replica
delete_atoms group replica
WARNING: Ignoring 'compress yes' for molecular system (../delete_atoms.cpp:125)
Deleted 37248 atoms, new total = 6208

###Run simulation

fix           fixcentro all recenter INIT INIT INIT
fix           fxbal  all balance 1000 1.05 rcb

compute densidad all chunk/atom bin/1d z lower 0.01 units reduced
fix 3 all ave/chunk 1000 70 100000 densidad density/mass file den-$d-$T.profile
fix 3 all ave/chunk 1000 70 100000 densidad density/mass file den-TIA_WT-$T.profile
fix 3 all ave/chunk 1000 70 100000 densidad density/mass file den-TIA_WT-380.profile

compute  rad all gyration
variable t equal step
variable r equal c_rad
fix      radfile all print 10000 "$t $r" file rad-$d-$T.dat screen no
fix      radfile all print 10000 "$t $r" file rad-TIA_WT-$T.dat screen no
fix      radfile all print 10000 "$t $r" file rad-TIA_WT-380.dat screen no

compute	msd all msd com yes
fix	msd all ave/time 1 1 10000 c_msd[4] file mds-$d-$T.dat
fix	msd all ave/time 1 1 10000 c_msd[4] file mds-TIA_WT-$T.dat
fix	msd all ave/time 1 1 10000 c_msd[4] file mds-TIA_WT-380.dat

run 10000000
Per MPI rank memory allocation (min/avg/max) = 28.87 | 29.13 | 30.07 Mbytes
Step PotEng Temp Press KinEng Lx Ly Lz Pzz S/CPU Density 
 1390002   -1482.0244    384.63297    79.920876    7116.4361    102.30911    102.30911    716.16376    78.995177            0   0.15430905 
 2000000    141.39824     380.9797    4.9077152    7048.8437    102.30911    102.30911    716.16376     7.912816    721.98511   0.15430905 
 3000000    356.73826    383.39832  -0.67072484    7093.5927    102.30911    102.30911    716.16376   -3.1776238    820.05178   0.15430905 
 4000000    331.23082    382.27496   -2.7025472    7072.8085    102.30911    102.30911    716.16376  -0.29015408    889.39365   0.15430905 
 5000000    437.63616    377.21491    1.6644586    6979.1879    102.30911    102.30911    716.16376   -3.0154107    818.31625   0.15430905 
 6000000    371.54898      376.379   -1.2582995     6963.722    102.30911    102.30911    716.16376   -6.8965245    847.17621   0.15430905 
 7000000    408.85923    368.60068    5.7647017    6819.8085    102.30911    102.30911    716.16376    6.7067176     841.3803   0.15430905 
 8000000    369.68646    382.02603  -0.98641885    7068.2028    102.30911    102.30911    716.16376   -4.4951137    864.09583   0.15430905 
 9000000    172.77071    375.78617    1.9315375    6952.7537    102.30911    102.30911    716.16376    1.2290586    813.03141   0.15430905 
10000000    421.65729    383.65087    1.9664808    7098.2655    102.30911    102.30911    716.16376    3.7671124    789.18917   0.15430905 
11000000    322.88025    382.32372    2.3252258    7073.7106    102.30911    102.30911    716.16376   0.56154783    829.36436   0.15430905 
11390002    498.90179    377.05024  -0.31498196    6976.1414    102.30911    102.30911    716.16376   -4.7753181     832.4641   0.15430905 
Loop time of 12108.2 on 6 procs for 10000000 steps with 6208 atoms

Performance: 713.565 ns/day, 0.034 hours/ns, 825.885 timesteps/s
99.4% CPU use with 6 MPI tasks x no OpenMP threads

MPI task timing breakdown:
Section |  min time  |  avg time  |  max time  |%varavg| %total
---------------------------------------------------------------
Pair    | 4981.6     | 7260.9     | 7997.3     |1221.3 | 59.97
Bond    | 108.81     | 111.33     | 116.47     |  22.9 |  0.92
Neigh   | 1214.7     | 1220.7     | 1228.9     |  13.5 | 10.08
Comm    | 1578.9     | 2244.3     | 4226.2     |1932.9 | 18.54
Output  | 0.52033    | 0.53565    | 0.54895    |   1.4 |  0.00
Modify  | 922.09     | 1122.8     | 1394       | 530.5 |  9.27
Other   |            | 147.7      |            |       |  1.22

Nlocal:        1034.67 ave        1080 max         995 min
Histogram: 1 1 0 1 1 0 0 0 1 1
Nghost:        4893.50 ave        5765 max        3921 min
Histogram: 1 1 0 0 0 0 2 1 0 1
Neighs:        34291.7 ave       41787 max       28281 min
Histogram: 2 0 1 0 0 0 2 0 0 1

Total # of neighbors = 205750
Ave neighs/atom = 33.142719
Ave special neighs/atom = 1.9793814
Neighbor list builds = 415094
Dangerous builds = 0

write_data data$d-$T.out
write_data dataTIA_WT-$T.out
write_data dataTIA_WT-380.out
System init for write_data ...

shell cd ..

clear

next x

jump SELF loopT
variable x loop 5

variable T equal 340+10*$x
variable T equal 340+10*5

units       real
dimension   3
boundary    p p p
atom_style  full

shell cd $d/
shell cd TIA_WT/

read_data $d.config
read_data TIA_WT.config
Reading data file ...
  orthogonal box = (0.0000000 0.0000000 0.0000000) to (300.00000 300.00000 300.00000)
  1 by 2 by 3 MPI processor grid
  reading atoms ...
  97 atoms
  scanning bonds ...
  1 = max bonds/atom
  reading bonds ...
  96 bonds
Finding 1-2 1-3 1-4 neighbors ...
  special bond factors lj:    0        0        0       
  special bond factors coul:  0        0        0       
     2 = max # of 1-2 neighbors
     2 = max # of 1-3 neighbors
     4 = max # of 1-4 neighbors
     6 = max # of special neighbors
  special bonds CPU = 0.000 seconds
  read_data CPU = 0.018 seconds

log log.$T
log log.390
