
bond_style  harmonic
dielectric  80.0

set type 25 charge 0.75
Setting atom values ...
  0 settings made for charge
set type 27 charge -0.75
Setting atom values ...
  0 settings made for charge
set type 28 charge -0.75
Setting atom values ...
  0 settings made for charge
set type 36 charge 0.375
Setting atom values ...
  0 settings made for charge
set type 23 charge 0.75
Setting atom values ...
  0 settings made for charge

set type 5 charge 0.75
Setting atom values ...
  1 settings made for charge
set type 7 charge -0.75
Setting atom values ...
  0 settings made for charge
set type 3  charge 0.75
Setting atom values ...
  0 settings made for charge
set type 16 charge 0.375
Setting atom values ...
  0 settings made for charge
set type 8  charge -0.75
Setting atom values ...
  1 settings made for charge

bond_coeff          1     9.600     3.81
#bond_coeff          2     9.600     5.00

pair_style  hybrid/overlay wf/cut 25.0 coul/debye 0.126 0.0

pair_coeff 30 30 wf/cut 0.004751 6.45565 1 3 19.367
pair_coeff 1 1 wf/cut 0.039564 6.467950871367303 1 2 19.403852614101908
pair_coeff 1 2 wf/cut 0.068017 5.576178403526399 1 2 16.728535210579196
pair_coeff 1 3 wf/cut 0.032686 6.5677835361737795 1 2 19.70335060852134
pair_coeff 1 4 wf/cut 0.035161 6.178228033595178 1 2 18.534684100785533
pair_coeff 1 5 wf/cut 0.171515 6.643964892255349 1 2 19.93189467676605
pair_coeff 1 6 wf/cut 0.044522 5.868502140125925 1 2 17.605506420377775
pair_coeff 1 7 wf/cut 0.073172 6.14145960937047 1 2 18.424378828111408
pair_coeff 1 8 wf/cut 0.077577 6.318176525841784 1 2 18.95452957752535
pair_coeff 1 9 wf/cut 0.229375 6.590037435016079 1 2 19.770112305048237
pair_coeff 1 10 wf/cut 0.022571 6.320571545407576 1 2 18.96171463622273
pair_coeff 1 11 wf/cut 0.025281 6.483443734640188 1 2 19.450331203920562
pair_coeff 1 12 wf/cut 0.120006 6.36518785664648 1 2 19.09556356993944
pair_coeff 1 13 wf/cut 0.294931 6.755728450520449 1 2 20.267185351561345
pair_coeff 1 14 wf/cut 0.215603 6.538208522101147 1 2 19.61462556630344
pair_coeff 1 15 wf/cut 0.050582 5.938940625510648 1 2 17.816821876531947
pair_coeff 1 16 wf/cut 0.203491 6.392507281968151 1 2 19.177521845904455
pair_coeff 1 17 wf/cut 0.116706 6.188018494610175 1 2 18.564055483830522
pair_coeff 1 18 wf/cut 0.059120 6.1344640513130955 1 2 18.403392153939286
pair_coeff 1 19 wf/cut 0.054437 6.094294827619396 1 2 18.282884482858186
pair_coeff 1 20 wf/cut 0.019979 6.496393035701747 1 2 19.48917910710524
pair_coeff 1 21 wf/cut 0.033511 6.472967463905089 1 2 19.418902391715267
pair_coeff 1 22 wf/cut 0.053464 5.579884038976499 1 2 16.7396521169295
pair_coeff 1 23 wf/cut 0.028840 6.572908139010548 1 2 19.718724417031645
pair_coeff 1 24 wf/cut 0.030487 6.183085528083141 1 2 18.549256584249424
pair_coeff 1 25 wf/cut 0.126057 6.646517494086263 1 2 19.93955248225879
pair_coeff 1 26 wf/cut 0.037087 5.873266644604083 1 2 17.61979993381225
pair_coeff 1 27 wf/cut 0.057192 6.145621669676131 1 2 18.43686500902839
pair_coeff 1 28 wf/cut 0.060220 6.322430858089529 1 2 18.967292574268587
pair_coeff 1 29 wf/cut 0.166559 6.592040039094211 1 2 19.776120117282634
pair_coeff 1 30 wf/cut 0.022157 6.322886509244067 1 2 18.9686595277322
pair_coeff 1 31 wf/cut 0.023649 6.486360198534797 1 2 19.45908059560439
pair_coeff 1 32 wf/cut 0.089698 6.368425539955892 1 2 19.105276619867674
pair_coeff 1 33 wf/cut 0.212282 6.7573688868401405 1 2 20.27210666052042
pair_coeff 1 34 wf/cut 0.156918 6.5402914181442595 1 2 19.620874254432778
pair_coeff 1 35 wf/cut 0.041217 5.943583554201671 1 2 17.830750662605013
pair_coeff 1 36 wf/cut 0.148384 6.394666170151445 1 2 19.183998510454334
pair_coeff 1 37 wf/cut 0.087498 6.191219964195186 1 2 18.57365989258556
pair_coeff 1 38 wf/cut 0.047275 6.139108925912469 1 2 18.417326777737408
pair_coeff 1 39 wf/cut 0.043970 6.098946985727069 1 2 18.296840957181207
pair_coeff 1 40 wf/cut 0.019979 6.496393035701747 1 2 19.48917910710524
pair_coeff 2 2 wf/cut 0.096470 4.695110240398406 1 2 14.085330721195216
pair_coeff 2 3 wf/cut 0.061139 5.671338290828199 1 2 17.014014872484598
pair_coeff 2 4 wf/cut 0.063614 5.284424971479424 1 2 15.85327491443827
pair_coeff 2 5 wf/cut 0.199968 5.766386193227936 1 2 17.299158579683805
pair_coeff 2 6 wf/cut 0.072975 4.980134552672144 1 2 14.940403658016432
pair_coeff 2 7 wf/cut 0.101625 5.2592548053112145 1 2 15.777764415933643
pair_coeff 2 8 wf/cut 0.106030 5.436374588857539 1 2 16.30912376657262
pair_coeff 2 9 wf/cut 0.257828 5.7131654456309935 1 2 17.139496336892982
pair_coeff 2 10 wf/cut 0.051024 5.412393397897493 1 2 16.23718019369248
pair_coeff 2 11 wf/cut 0.053734 5.578930397816427 1 2 16.736791193449278
pair_coeff 2 12 wf/cut 0.148459 5.486299347261422 1 2 16.458898041784266
pair_coeff 2 13 wf/cut 0.323384 5.879238002082802 1 2 17.63771400624841
pair_coeff 2 14 wf/cut 0.244056 5.661218822883835 1 2 16.983656468651503
pair_coeff 2 15 wf/cut 0.079035 5.052524512175333 1 2 15.157573536526
pair_coeff 2 16 wf/cut 0.231944 5.515411637199979 1 2 16.54623491159994
pair_coeff 2 17 wf/cut 0.145159 5.3090163197417555 1 2 15.927048959225267
pair_coeff 2 18 wf/cut 0.087573 5.249990542761369 1 2 15.749971628284106
pair_coeff 2 19 wf/cut 0.082890 5.208722790322849 1 2 15.626168370968546
pair_coeff 2 20 wf/cut 0.048432 5.580329252471181 1 2 16.740987757413542
pair_coeff 2 21 wf/cut 0.061964 5.577215175821233 1 2 16.731645527463698
pair_coeff 2 22 wf/cut 0.081917 4.696396560631559 1 2 14.089189681894677
pair_coeff 2 23 wf/cut 0.057293 5.67211261999139 1 2 17.016337859974172
pair_coeff 2 24 wf/cut 0.058940 5.285212528563172 1 2 15.855637585689518
pair_coeff 2 25 wf/cut 0.154510 5.767769508320207 1 2 17.30330852496062
pair_coeff 2 26 wf/cut 0.065540 4.981125987510791 1 2 14.943377962532374
pair_coeff 2 27 wf/cut 0.085645 5.260651874488179 1 2 15.781955623464537
pair_coeff 2 28 wf/cut 0.088673 5.437809343618614 1 2 16.313428030855842
pair_coeff 2 29 wf/cut 0.195012 5.714358676536591 1 2 17.143076029609773
pair_coeff 2 30 wf/cut 0.050610 5.412530359493723 1 2 16.23759107848117
pair_coeff 2 31 wf/cut 0.052102 5.579325356579805 1 2 16.737976069739414
pair_coeff 2 32 wf/cut 0.118151 5.487774115196598 1 2 16.463322345589795
pair_coeff 2 33 wf/cut 0.240735 5.880303283956183 1 2 17.64090985186855
pair_coeff 2 34 wf/cut 0.185371 5.662447134978403 1 2 16.987341404935208
pair_coeff 2 35 wf/cut 0.069670 5.053695239348068 1 2 15.161085718044204
pair_coeff 2 36 wf/cut 0.176837 5.516638738971832 1 2 16.549916216915495
pair_coeff 2 37 wf/cut 0.115951 5.310437234694913 1 2 15.931311704084738
pair_coeff 2 38 wf/cut 0.075728 5.251325825579545 1 2 15.753977476738633
pair_coeff 2 39 wf/cut 0.072423 5.20997288304294 1 2 15.629918649128818
pair_coeff 2 40 wf/cut 0.048432 5.580329252471181 1 2 16.740987757413542
pair_coeff 3 3 wf/cut 0.019117 6.671340524039856 1 2 20.014021572119567
pair_coeff 3 4 wf/cut 0.028283 6.279399881910995 1 2 18.838199645732985
pair_coeff 3 5 wf/cut 0.121938 6.73819193132635 1 2 20.21457579397905
pair_coeff 3 6 wf/cut 0.037644 5.966686347623176 1 2 17.90005904286953
pair_coeff 3 7 wf/cut 0.000493 6.236987380482699 1 2 18.710962141448096
pair_coeff 3 8 wf/cut 0.000526 6.413575163938182 1 2 19.240725491814544
pair_coeff 3 9 wf/cut 0.102701 6.684083406034673 1 2 20.052250218104017
pair_coeff 3 10 wf/cut 0.015693 6.433541011383533 1 2 19.3006230341506
pair_coeff 3 11 wf/cut 0.018403 6.592557574989555 1 2 19.777672724968664
pair_coeff 3 12 wf/cut 0.113128 6.4596938105680355 1 2 19.37908143170411
pair_coeff 3 13 wf/cut 0.104796 6.849685211660051 1 2 20.549055634980153
pair_coeff 3 14 wf/cut 0.115276 6.632280360446061 1 2 19.896841081338184
pair_coeff 3 15 wf/cut 0.043704 6.036179732070119 1 2 18.10853919621036
pair_coeff 3 16 wf/cut 0.087370 6.4866030031823305 1 2 19.45980900954699
pair_coeff 3 17 wf/cut 0.109828 6.2825460057664415 1 2 18.847638017299325
pair_coeff 3 18 wf/cut 0.052242 6.2310615597122725 1 2 18.693184679136817
pair_coeff 3 19 wf/cut 0.047559 6.191153675456269 1 2 18.573461026368804
pair_coeff 3 20 wf/cut 0.013101 6.617996254538358 1 2 19.853988763615074
pair_coeff 3 21 wf/cut 0.026633 6.575236990212751 1 2 19.725710970638254
pair_coeff 3 22 wf/cut 0.046586 5.67591070475063 1 2 17.02773211425189
pair_coeff 3 23 wf/cut 0.016267 6.6786690213492745 1 2 20.036007064047823
pair_coeff 3 24 wf/cut 0.023609 6.28697050091405 1 2 18.860911502742148
pair_coeff 3 25 wf/cut 0.088471 6.7410021187479785 1 2 20.223006356243935
pair_coeff 3 26 wf/cut 0.030209 5.973496417353158 1 2 17.920489252059475
pair_coeff 3 27 wf/cut 0.000375 6.242202340571064 1 2 18.726607021713193
pair_coeff 3 28 wf/cut 0.000395 6.41884518513886 1 2 19.25653555541658
pair_coeff 3 29 wf/cut 0.087295 6.686244113621416 1 2 20.058732340864246
pair_coeff 3 30 wf/cut 0.015279 6.438064853494475 1 2 19.314194560483426
pair_coeff 3 31 wf/cut 0.016771 6.597859600272992 1 2 19.793578800818977
pair_coeff 3 32 wf/cut 0.082820 6.463434808995108 1 2 19.390304426985324
pair_coeff 3 33 wf/cut 0.089077 6.851438991432198 1 2 20.554316974296594
pair_coeff 3 34 wf/cut 0.097985 6.634536462444846 1 2 19.903609387334537
pair_coeff 3 35 wf/cut 0.034339 6.042553594266142 1 2 18.127660782798426
pair_coeff 3 36 wf/cut 0.062880 6.488951472342971 1 2 19.466854417028912
pair_coeff 3 37 wf/cut 0.080620 6.286259565568102 1 2 18.858778696704306
pair_coeff 3 38 wf/cut 0.040397 6.23694969931501 1 2 18.71084909794503
pair_coeff 3 39 wf/cut 0.037092 6.197406382364393 1 2 18.59221914709318
pair_coeff 3 40 wf/cut 0.013101 6.617996254538358 1 2 19.853988763615074
pair_coeff 4 4 wf/cut 0.030758 5.8890615748048605 1 2 17.667184724414582
pair_coeff 4 5 wf/cut 0.167112 6.352015695367313 1 2 19.056047086101938
pair_coeff 4 6 wf/cut 0.040119 5.577947754246859 1 2 16.733843262740578
pair_coeff 4 7 wf/cut 0.068769 5.849866323299111 1 2 17.549598969897332
pair_coeff 4 8 wf/cut 0.073174 6.026541387517959 1 2 18.079624162553877
pair_coeff 4 9 wf/cut 0.224972 6.298063007043266 1 2 18.894189021129797
pair_coeff 4 10 wf/cut 0.018168 6.03696547344559 1 2 18.11089642033677
pair_coeff 4 11 wf/cut 0.020878 6.198088878491606 1 2 18.594266635474817
pair_coeff 4 12 wf/cut 0.115603 6.073287961608412 1 2 18.219863884825237
pair_coeff 4 13 wf/cut 0.290527 6.463775207339586 1 2 19.39132562201876
pair_coeff 4 14 wf/cut 0.211200 6.246251077325644 1 2 18.73875323197693
pair_coeff 4 15 wf/cut 0.046179 5.648007650359314 1 2 16.94402295107794
pair_coeff 4 16 wf/cut 0.199088 6.1005286446452045 1 2 18.301585933935613
pair_coeff 4 17 wf/cut 0.112303 5.896099182190375 1 2 17.688297546571125
pair_coeff 4 18 wf/cut 0.054717 5.84319611761197 1 2 17.52958835283591
pair_coeff 4 19 wf/cut 0.050034 5.803211551983609 1 2 17.40963465595083
pair_coeff 4 20 wf/cut 0.015576 6.214617146494642 1 2 18.643851439483925
pair_coeff 4 21 wf/cut 0.029108 6.184377266229273 1 2 18.55313179868782
pair_coeff 4 22 wf/cut 0.049061 5.288433024843104 1 2 15.865299074529311
pair_coeff 4 23 wf/cut 0.024437 6.285985931141882 1 2 18.857957793425648
pair_coeff 4 24 wf/cut 0.026084 5.895181038887271 1 2 17.685543116661812
pair_coeff 4 25 wf/cut 0.121654 6.3546176961456355 1 2 19.063853088436908
pair_coeff 4 26 wf/cut 0.032684 5.583620888610048 1 2 16.75086266583014
pair_coeff 4 27 wf/cut 0.052789 5.854435916763915 1 2 17.563307750291745
pair_coeff 4 28 wf/cut 0.055817 6.031184910048361 1 2 18.093554730145083
pair_coeff 4 29 wf/cut 0.162155 6.300073473520442 1 2 18.900220420561325
pair_coeff 4 30 wf/cut 0.017754 6.038590687548953 1 2 18.115772062646858
pair_coeff 4 31 wf/cut 0.019246 6.20213243224441 1 2 18.606397296733228
pair_coeff 4 32 wf/cut 0.085295 6.076667470375622 1 2 18.230002411126865
pair_coeff 4 33 wf/cut 0.207879 6.4653998696548625 1 2 19.396199608964587
pair_coeff 4 34 wf/cut 0.152515 6.248347277402027 1 2 18.74504183220608
pair_coeff 4 35 wf/cut 0.036814 5.653400669933968 1 2 16.960202009801904
pair_coeff 4 36 wf/cut 0.143981 6.1027057764377375 1 2 18.308117329313212
pair_coeff 4 37 wf/cut 0.083095 5.899444861363162 1 2 17.698334584089487
pair_coeff 4 38 wf/cut 0.042872 5.848454222246143 1 2 17.545362666738427
pair_coeff 4 39 wf/cut 0.039567 5.808550835350359 1 2 17.425652506051076
pair_coeff 4 40 wf/cut 0.015576 6.214617146494642 1 2 18.643851439483925
pair_coeff 5 5 wf/cut 0.089916 6.839051042416954 1 2 20.51715312725086
pair_coeff 5 6 wf/cut 0.176473 6.049093128275473 1 2 18.14727938482642
pair_coeff 5 7 wf/cut 0.001522 6.329860382208001 1 2 18.989581146624005
pair_coeff 5 8 wf/cut 0.001554 6.507087894628845 1 2 19.521263683886534
pair_coeff 5 9 wf/cut 0.607820 6.786238537205683 1 2 20.358715611617047
pair_coeff 5 10 wf/cut 0.154522 6.477800731622431 1 2 19.433402194867295
pair_coeff 5 11 wf/cut 0.157232 6.644606745714045 1 2 19.933820237142136
pair_coeff 5 12 wf/cut 0.251957 6.5582801074116395 1 2 19.674840322234918
pair_coeff 5 13 wf/cut 0.691657 6.952550947859904 1 2 20.85765284357971
pair_coeff 5 14 wf/cut 0.544942 6.734244851368496 1 2 20.20273455410549
pair_coeff 5 15 wf/cut 0.182533 6.121907195991114 1 2 18.365721587973344
pair_coeff 5 16 wf/cut 0.124237 6.588371399225676 1 2 19.76511419767703
pair_coeff 5 17 wf/cut 0.248657 6.381027696653046 1 2 19.143083089959138
pair_coeff 5 18 wf/cut 0.191071 6.319850876308843 1 2 18.95955262892653
pair_coeff 5 19 wf/cut 0.186388 6.2782756347766915 1 2 18.834826904330075
pair_coeff 5 20 wf/cut 0.151930 6.644914452592528 1 2 19.934743357777585
pair_coeff 5 21 wf/cut 0.165462 6.6442230427261695 1 2 19.93266912817851
pair_coeff 5 22 wf/cut 0.185415 5.7668587075646895 1 2 17.300576122694068
pair_coeff 5 23 wf/cut 0.160791 6.738370816695987 1 2 20.21511245008796
pair_coeff 5 24 wf/cut 0.162438 6.352227758045304 1 2 19.056683274135914
pair_coeff 5 25 wf/cut 0.076528 6.839775073180529 1 2 20.519325219541585
pair_coeff 5 26 wf/cut 0.169038 6.0493803544908396 1 2 18.14814106347252
pair_coeff 5 27 wf/cut 0.001403 6.330338025744615 1 2 18.991014077233842
pair_coeff 5 28 wf/cut 0.001424 6.507609785991295 1 2 19.522829357973883
pair_coeff 5 29 wf/cut 0.516647 6.786966179847217 1 2 20.36089853954165
pair_coeff 5 30 wf/cut 0.154108 6.477855546012645 1 2 19.433566638037934
pair_coeff 5 31 wf/cut 0.155600 6.644688317632491 1 2 19.934064952897472
pair_coeff 5 32 wf/cut 0.221649 6.558922216808411 1 2 19.676766650425233
pair_coeff 5 33 wf/cut 0.587908 6.953270762564632 1 2 20.859812287693895
pair_coeff 5 34 wf/cut 0.463200 6.734965561624807 1 2 20.20489668487442
pair_coeff 5 35 wf/cut 0.173168 6.122239691611766 1 2 18.366719074835295
pair_coeff 5 36 wf/cut 0.103828 6.589083179632521 1 2 19.767249538897563
pair_coeff 5 37 wf/cut 0.219449 6.381655047319296 1 2 19.14496514195789
pair_coeff 5 38 wf/cut 0.179226 6.320242196579514 1 2 18.96072658973854
pair_coeff 5 39 wf/cut 0.175921 6.27864243896636 1 2 18.83592731689908
pair_coeff 5 40 wf/cut 0.151930 6.644914452592528 1 2 19.934743357777585
pair_coeff 6 6 wf/cut 0.049480 5.270073550243385 1 2 15.810220650730155
pair_coeff 6 7 wf/cut 0.078130 5.545103888084069 1 2 16.635311664252207
pair_coeff 6 8 wf/cut 0.082535 5.721983178129665 1 2 17.165949534388993
pair_coeff 6 9 wf/cut 0.234333 5.995374866482686 1 2 17.986124599448058
pair_coeff 6 10 wf/cut 0.027529 5.714672842433839 1 2 17.14401852730152
pair_coeff 6 11 wf/cut 0.030239 5.879183169613761 1 2 17.637549508841282
pair_coeff 6 12 wf/cut 0.124964 5.769878425481944 1 2 17.30963527644583
pair_coeff 6 13 wf/cut 0.299889 6.1612197345718664 1 2 18.4836592037156
pair_coeff 6 14 wf/cut 0.220561 5.943524169558512 1 2 17.830572508675537
pair_coeff 6 15 wf/cut 0.055540 5.341186580911172 1 2 16.023559742733518
pair_coeff 6 16 wf/cut 0.208449 5.797765867232053 1 2 17.393297601696162
pair_coeff 6 17 wf/cut 0.121665 5.592676667454632 1 2 16.778030002363895
pair_coeff 6 18 wf/cut 0.064078 5.537383848868321 1 2 16.612151546604963
pair_coeff 6 19 wf/cut 0.059395 5.496867679432823 1 2 16.490603038298467
pair_coeff 6 20 wf/cut 0.024937 5.887264113119765 1 2 17.661792339359295
pair_coeff 6 21 wf/cut 0.038469 5.872091702440819 1 2 17.616275107322455
pair_coeff 6 22 wf/cut 0.058422 4.983057318967985 1 2 14.949171956903955
pair_coeff 6 23 wf/cut 0.033798 5.970212624670237 1 2 17.91063787401071
pair_coeff 6 24 wf/cut 0.035445 5.581322386503443 1 2 16.743967159510326
pair_coeff 6 25 wf/cut 0.131015 6.051283655448215 1 2 18.153850966344642
pair_coeff 6 26 wf/cut 0.042046 5.273529178305013 1 2 15.82058753491504
pair_coeff 6 27 wf/cut 0.062150 5.548382201124551 1 2 16.645146603373654
pair_coeff 6 28 wf/cut 0.065178 5.725365872076537 1 2 17.17609761622961
pair_coeff 6 29 wf/cut 0.171517 5.997120040197383 1 2 17.991360120592148
pair_coeff 6 30 wf/cut 0.027116 5.716115591130418 1 2 17.148346773391253
pair_coeff 6 31 wf/cut 0.028607 5.881066148485684 1 2 17.643198445457053
pair_coeff 6 32 wf/cut 0.094656 5.77257425641905 1 2 17.317722769257152
pair_coeff 6 33 wf/cut 0.217240 6.16266774871136 1 2 18.48800324613408
pair_coeff 6 34 wf/cut 0.161876 5.945332519051 1 2 17.835997557153
pair_coeff 6 35 wf/cut 0.046175 5.344636755005952 1 2 16.03391026501786
pair_coeff 6 36 wf/cut 0.153342 5.799630893236802 1 2 17.398892679710407
pair_coeff 6 37 wf/cut 0.092457 5.595329366190724 1 2 16.785988098572172
pair_coeff 6 38 wf/cut 0.052233 5.540935423926066 1 2 16.6228062717782
pair_coeff 6 39 wf/cut 0.048928 5.50037559161048 1 2 16.50112677483144
pair_coeff 6 40 wf/cut 0.024937 5.887264113119765 1 2 17.661792339359295
pair_coeff 7 7 wf/cut 0.079096 5.823521721060312 1 2 17.470565163180936
pair_coeff 7 8 wf/cut 0.082359 6.000582237524121 1 2 18.001746712572363
pair_coeff 7 9 wf/cut 0.262983 6.276473791430636 1 2 18.829421374291908
pair_coeff 7 10 wf/cut 0.056178 5.978735433494051 1 2 17.93620630048215
pair_coeff 7 11 wf/cut 0.058888 6.145089275635634 1 2 18.4352678269069
pair_coeff 7 12 wf/cut 0.153614 6.0500403862929435 1 2 18.150121158878832
pair_coeff 7 13 wf/cut 0.328538 6.4424403069543335 1 2 19.327320920863002
pair_coeff 7 14 wf/cut 0.249211 6.224557346027278 1 2 18.673672038081833
pair_coeff 7 15 wf/cut 0.084189 5.617298771179795 1 2 16.851896313539385
pair_coeff 7 16 wf/cut 0.001758 6.078759471752929 1 2 18.236278415258788
pair_coeff 7 17 wf/cut 0.150314 5.872796196825872 1 2 17.618388590477615
pair_coeff 7 18 wf/cut 0.092728 5.81454574012806 1 2 17.44363722038418
pair_coeff 7 19 wf/cut 0.088045 5.773404302618334 1 2 17.320212907855
pair_coeff 7 20 wf/cut 0.053587 6.146988238119009 1 2 18.44096471435703
pair_coeff 7 21 wf/cut 0.067118 6.142810853550669 1 2 18.428432560652006
pair_coeff 7 22 wf/cut 0.087071 5.260822534908925 1 2 15.782467604726776
pair_coeff 7 23 wf/cut 0.062448 6.238009317192061 1 2 18.714027951576185
pair_coeff 7 24 wf/cut 0.064094 5.850906179325341 1 2 17.552718537976023
pair_coeff 7 25 wf/cut 0.159665 6.331479448731908 1 2 18.994438346195725
pair_coeff 7 26 wf/cut 0.070695 5.546505225276659 1 2 16.639515675829976
pair_coeff 7 27 wf/cut 0.067258 5.825264832984326 1 2 17.47579449895298
pair_coeff 7 28 wf/cut 0.069297 6.002427424339147 1 2 18.00728227301744
pair_coeff 7 29 wf/cut 0.200166 6.277866750279897 1 2 18.83360025083969
pair_coeff 7 30 wf/cut 0.055765 5.978921905643417 1 2 17.93676571693025
pair_coeff 7 31 wf/cut 0.057257 6.145621669676131 1 2 18.43686500902839
pair_coeff 7 32 wf/cut 0.123306 6.051811079871612 1 2 18.155433239614837
pair_coeff 7 33 wf/cut 0.245890 6.4436539809330755 1 2 19.330961942799227
pair_coeff 7 34 wf/cut 0.190526 6.225980124267849 1 2 18.677940372803548
pair_coeff 7 35 wf/cut 0.074825 5.6188072088999945 1 2 16.856421626699984
pair_coeff 7 36 wf/cut 0.001350 6.080187764149639 1 2 18.24056329244892
pair_coeff 7 37 wf/cut 0.121106 5.874523045623452 1 2 17.623569136870355
pair_coeff 7 38 wf/cut 0.080883 5.816239431041905 1 2 17.448718293125715
pair_coeff 7 39 wf/cut 0.077578 5.775001596638995 1 2 17.325004789916985
pair_coeff 7 40 wf/cut 0.053587 6.146988238119009 1 2 18.44096471435703
pair_coeff 8 8 wf/cut 0.085622 6.177670315650897 1 2 18.533010946952693
pair_coeff 8 9 wf/cut 0.267388 6.453698205558216 1 2 19.36109461667465
pair_coeff 8 10 wf/cut 0.060583 6.155038804583549 1 2 18.46511641375065
pair_coeff 8 11 wf/cut 0.063293 6.321457293122011 1 2 18.964371879366034
pair_coeff 8 12 wf/cut 0.158019 6.22721384211578 1 2 18.681641526347338
pair_coeff 8 13 wf/cut 0.332943 6.61969178186508 1 2 19.85907534559524
pair_coeff 8 14 wf/cut 0.253616 6.401798946045327 1 2 19.205396838135982
pair_coeff 8 15 wf/cut 0.088594 5.794219764312674 1 2 17.382659292938023
pair_coeff 8 16 wf/cut 0.001791 6.2560007029022255 1 2 18.768002108706675
pair_coeff 8 17 wf/cut 0.154719 6.049988923928926 1 2 18.14996677178678
pair_coeff 8 18 wf/cut 0.097133 5.991524845146615 1 2 17.974574535439846
pair_coeff 8 19 wf/cut 0.092450 5.950364732175825 1 2 17.851094196527477
pair_coeff 8 20 wf/cut 0.057992 6.323325627682127 1 2 18.96997688304638
pair_coeff 8 21 wf/cut 0.071523 6.319407907453407 1 2 18.95822372236022
pair_coeff 8 22 wf/cut 0.091476 5.437918514751647 1 2 16.313755544254942
pair_coeff 8 23 wf/cut 0.066853 6.414637503765215 1 2 19.243912511295648
pair_coeff 8 24 wf/cut 0.068499 6.027610728824833 1 2 18.082832186474498
pair_coeff 8 25 wf/cut 0.164070 6.50867097271995 1 2 19.52601291815985
pair_coeff 8 26 wf/cut 0.075100 5.723271374681476 1 2 17.16981412404443
pair_coeff 8 27 wf/cut 0.095204 6.002225923033709 1 2 18.006677769101127
pair_coeff 8 28 wf/cut 0.072560 6.179413824459994 1 2 18.538241473379983
pair_coeff 8 29 wf/cut 0.204571 6.455074051412765 1 2 19.365222154238296
pair_coeff 8 30 wf/cut 0.060170 6.155372367938502 1 2 18.466117103815506
pair_coeff 8 31 wf/cut 0.061662 6.321931368367982 1 2 18.965794105103946
pair_coeff 8 32 wf/cut 0.127711 6.228922014398231 1 2 18.686766043194694
pair_coeff 8 33 wf/cut 0.250295 6.620903112987423 1 2 19.86270933896227
pair_coeff 8 34 wf/cut 0.194931 6.403201712664134 1 2 19.2096051379924
pair_coeff 8 35 wf/cut 0.079230 5.795615810910755 1 2 17.386847432732267
pair_coeff 8 36 wf/cut 0.001379 6.257425310960982 1 2 18.772275932882945
pair_coeff 8 37 wf/cut 0.125511 6.051653861598323 1 2 18.154961584794968
pair_coeff 8 38 wf/cut 0.085288 5.993104375441103 1 2 17.97931312632331
pair_coeff 8 39 wf/cut 0.081983 5.951847773872721 1 2 17.855543321618164
pair_coeff 8 40 wf/cut 0.057992 6.323325627682127 1 2 18.96997688304638
pair_coeff 9 9 wf/cut 0.419186 6.733634028253079 1 2 20.20090208475924
pair_coeff 9 10 wf/cut 0.212382 6.423549039740656 1 2 19.270647119221966
pair_coeff 9 11 wf/cut 0.215092 6.590387900103195 1 2 19.771163700309586
pair_coeff 9 12 wf/cut 0.309817 6.50524897581083 1 2 19.51574692743249
pair_coeff 9 13 wf/cut 0.484741 6.900050363131952 1 2 20.700151089395856
pair_coeff 9 14 wf/cut 0.405414 6.6815889712242855 1 2 20.044766913672856
pair_coeff 9 15 wf/cut 0.240393 6.068280818635755 1 2 18.204842455907265
pair_coeff 9 16 wf/cut 0.393302 6.535691224609458 1 2 19.607073673828374
pair_coeff 9 17 wf/cut 0.306517 6.327982683666391 1 2 18.98394805099917
pair_coeff 9 18 wf/cut 0.248931 6.266295198960733 1 2 18.798885596882197
pair_coeff 9 19 wf/cut 0.244248 6.2246507773507185 1 2 18.673952332052156
pair_coeff 9 20 wf/cut 0.209790 6.5905505017289965 1 2 19.771651505186988
pair_coeff 9 21 wf/cut 0.223322 6.590180270116687 1 2 19.770540810350063
pair_coeff 9 22 wf/cut 0.243275 5.713450024075365 1 2 17.140350072226095
pair_coeff 9 23 wf/cut 0.218651 6.6841805825849985 1 2 20.052541747754994
pair_coeff 9 24 wf/cut 0.220298 6.298178954636986 1 2 18.894536863910957
pair_coeff 9 25 wf/cut 0.315868 6.786739795335731 1 2 20.360219386007195
pair_coeff 9 26 wf/cut 0.226898 5.99553560612189 1 2 17.98660681836567
pair_coeff 9 27 wf/cut 0.247003 6.276768673597067 1 2 18.8303060207912
pair_coeff 9 28 wf/cut 0.250031 6.454011505099358 1 2 19.362034515298074
pair_coeff 9 29 wf/cut 0.356369 6.734156486173098 1 2 20.202469458519293
pair_coeff 9 30 wf/cut 0.211968 6.4235779793345555 1 2 19.270733938003666
pair_coeff 9 31 wf/cut 0.213460 6.590431338464252 1 2 19.771294015392755
pair_coeff 9 32 wf/cut 0.279509 6.505661229041637 1 2 19.516983687124913
pair_coeff 9 33 wf/cut 0.402093 6.900589936537501 1 2 20.701769809612504
pair_coeff 9 34 wf/cut 0.346729 6.682106650582579 1 2 20.046319951747737
pair_coeff 9 35 wf/cut 0.231028 6.06846960743136 1 2 18.20540882229408
pair_coeff 9 36 wf/cut 0.338195 6.536191669581551 1 2 19.60857500874465
pair_coeff 9 37 wf/cut 0.277309 6.328383771538186 1 2 18.98515131461456
pair_coeff 9 38 wf/cut 0.237086 6.266521616565618 1 2 18.799564849696853
pair_coeff 9 39 wf/cut 0.233781 6.224860927463627 1 2 18.674582782390882
pair_coeff 9 40 wf/cut 0.209790 6.5905505017289965 1 2 19.771651505186988
pair_coeff 10 10 wf/cut 0.005578 6.265999286288815 1 2 18.797997858866445
pair_coeff 10 11 wf/cut 0.008288 6.390932891994093 1 2 19.17279867598228
pair_coeff 10 12 wf/cut 0.103013 6.199729734496916 1 2 18.59918920349075
pair_coeff 10 13 wf/cut 0.277937 6.589117480615403 1 2 19.76735244184621
pair_coeff 10 14 wf/cut 0.198610 6.371783619045257 1 2 19.11535085713577
pair_coeff 10 15 wf/cut 0.033589 5.781664862063682 1 2 17.344994586191046
pair_coeff 10 16 wf/cut 0.186498 6.226104236834126 1 2 18.67831271050238
pair_coeff 10 17 wf/cut 0.099713 6.022605657483588 1 2 18.067816972450764
pair_coeff 10 18 wf/cut 0.042127 5.974331431598945 1 2 17.922994294796837
pair_coeff 10 19 wf/cut 0.037444 5.935671447441882 1 2 17.807014342325644
pair_coeff 10 21 wf/cut 0.016518 6.336783382464571 1 2 19.010350147393712
pair_coeff 10 22 wf/cut 0.036471 5.418375566526451 1 2 16.255126699579353
pair_coeff 10 23 wf/cut 0.011847 6.452549354094189 1 2 19.357648062282568
pair_coeff 10 24 wf/cut 0.013494 6.0532242372044625 1 2 18.15967271161339
pair_coeff 10 25 wf/cut 0.109064 6.480992623201166 1 2 19.442977869603496
pair_coeff 10 26 wf/cut 0.020094 5.727883796640076 1 2 17.18365138992023
pair_coeff 10 27 wf/cut 0.040199 5.986137211233324 1 2 17.958411633699974
pair_coeff 10 28 wf/cut 0.043227 6.162354266488605 1 2 18.487062799465814
pair_coeff 10 29 wf/cut 0.149565 6.425899535640867 1 2 19.277698606922602
pair_coeff 10 30 wf/cut 0.005164 6.279450553510229 1 2 18.838351660530687
pair_coeff 10 31 wf/cut 0.006656 6.414806714205564 1 2 19.24442014261669
pair_coeff 10 32 wf/cut 0.072705 6.20424895331838 1 2 18.61274685995514
pair_coeff 10 33 wf/cut 0.195289 6.590957221363035 1 2 19.772871664089106
pair_coeff 10 34 wf/cut 0.139925 6.374256698313246 1 2 19.12277009493974
pair_coeff 10 35 wf/cut 0.024224 5.79281450588842 1 2 17.37844351766526
pair_coeff 10 36 wf/cut 0.131391 6.228661475252712 1 2 18.685984425758136
pair_coeff 10 37 wf/cut 0.070505 6.027117316392745 1 2 18.081351949178234
pair_coeff 10 38 wf/cut 0.030282 5.983977483837185 1 2 17.951932451511553
pair_coeff 10 39 wf/cut 0.026977 5.94607610198081 1 2 17.83822830594243
pair_coeff 11 11 wf/cut 0.010998 6.53407242179841 1 2 19.60221726539523
pair_coeff 11 12 wf/cut 0.105723 6.366490684329992 1 2 19.099472052989977
pair_coeff 11 13 wf/cut 0.280647 6.755935225417062 1 2 20.267805676251186
pair_coeff 11 14 wf/cut 0.201320 6.538603519887749 1 2 19.615810559663245
pair_coeff 11 15 wf/cut 0.036299 5.946968662780402 1 2 17.840905988341206
pair_coeff 11 16 wf/cut 0.189208 6.392942886970462 1 2 19.178828660911385
pair_coeff 11 17 wf/cut 0.102423 6.189364574070181 1 2 18.56809372221054
pair_coeff 11 18 wf/cut 0.044837 6.1402119935661545 1 2 18.420635980698464
pair_coeff 11 19 wf/cut 0.040154 6.101247830628814 1 2 18.30374349188644
pair_coeff 11 20 wf/cut 0.005696 6.607723261980873 1 2 19.823169785942618
pair_coeff 11 21 wf/cut 0.019228 6.496393035701747 1 2 19.48917910710524
pair_coeff 11 22 wf/cut 0.039181 5.584501642231329 1 2 16.753504926693985
pair_coeff 11 23 wf/cut 0.014557 6.60658239133453 1 2 19.819747174003588
pair_coeff 11 24 wf/cut 0.016204 6.210508609486856 1 2 18.631525828460568
pair_coeff 11 25 wf/cut 0.111774 6.647740379710509 1 2 19.943221139131527
pair_coeff 11 26 wf/cut 0.022804 5.890170182090268 1 2 17.670510546270805
pair_coeff 11 27 wf/cut 0.042909 6.151889183567281 1 2 18.455667550701843
pair_coeff 11 28 wf/cut 0.045937 6.3282208238107795 1 2 18.984662471432337
pair_coeff 11 29 wf/cut 0.152275 6.5927216895129135 1 2 19.77816506853874
pair_coeff 11 30 wf/cut 0.007874 6.397951767513159 1 2 19.193855302539475
pair_coeff 11 31 wf/cut 0.009366 6.548412328573101 1 2 19.645236985719304
pair_coeff 11 32 wf/cut 0.075415 6.370842118401069 1 2 19.112526355203208
pair_coeff 11 33 wf/cut 0.197999 6.75777413374384 1 2 20.27332240123152
pair_coeff 11 34 wf/cut 0.142635 6.541054552668633 1 2 19.623163658005897
pair_coeff 11 35 wf/cut 0.026934 5.956563720651988 1 2 17.869691161955963
pair_coeff 11 36 wf/cut 0.134101 6.395473237725452 1 2 19.186419713176356
pair_coeff 11 37 wf/cut 0.073215 6.193703302501737 1 2 18.58110990750521
pair_coeff 11 38 wf/cut 0.032992 6.148785435376327 1 2 18.446356306128983
pair_coeff 11 39 wf/cut 0.029687 6.110345071454451 1 2 18.331035214363354
pair_coeff 11 40 wf/cut 0.005696 6.607723261980873 1 2 19.823169785942618
pair_coeff 12 12 wf/cut 0.200448 6.277850874229409 1 2 18.833552622688227
pair_coeff 12 13 wf/cut 0.375372 6.671405311072043 1 2 20.01421593321613
pair_coeff 12 14 wf/cut 0.296045 6.4532756440329795 1 2 19.35982693209894
pair_coeff 12 15 wf/cut 0.131024 5.84255485528308 1 2 17.52766456584924
pair_coeff 12 16 wf/cut 0.283933 6.307431677259977 1 2 18.92229503177993
pair_coeff 12 17 wf/cut 0.197148 6.100591694847331 1 2 18.301775084541994
pair_coeff 12 18 wf/cut 0.139562 6.040345112977554 1 2 18.12103533893266
pair_coeff 12 19 wf/cut 0.134879 5.998852825433778 1 2 17.99655847630133
pair_coeff 12 20 wf/cut 0.100421 6.367152767929573 1 2 19.101458303788718
pair_coeff 12 21 wf/cut 0.113953 6.365699666568734 1 2 19.0970989997062
pair_coeff 12 22 wf/cut 0.133906 5.487109605448974 1 2 16.46132881634692
pair_coeff 12 23 wf/cut 0.109282 6.460110665288058 1 2 19.380331995864175
pair_coeff 12 24 wf/cut 0.110929 6.07371622854753 1 2 18.22114868564259
pair_coeff 12 25 wf/cut 0.206499 6.559327404195954 1 2 19.67798221258786
pair_coeff 12 26 wf/cut 0.117529 5.770434344200525 1 2 17.311303032601575
pair_coeff 12 27 wf/cut 0.137634 6.050878049577443 1 2 18.15263414873233
pair_coeff 12 28 wf/cut 0.140662 6.22811906216779 1 2 18.68435718650337
pair_coeff 12 29 wf/cut 0.247000 6.506235094735004 1 2 19.518705284205012
pair_coeff 12 30 wf/cut 0.102599 6.199847722340906 1 2 18.59954316702272
pair_coeff 12 31 wf/cut 0.104091 6.366663725733202 1 2 19.099991177199605
pair_coeff 12 32 wf/cut 0.170140 6.278875223812024 1 2 18.836625671436074
pair_coeff 12 33 wf/cut 0.292724 6.6723319742793255 1 2 20.016995922837978
pair_coeff 12 34 wf/cut 0.237360 6.454265231889239 1 2 19.362795695667717
pair_coeff 12 35 wf/cut 0.121659 5.8431832590102974 1 2 17.529549777030894
pair_coeff 12 36 wf/cut 0.228826 6.308421039847022 1 2 18.925263119541064
pair_coeff 12 37 wf/cut 0.167940 6.10158175427316 1 2 18.30474526281948
pair_coeff 12 38 wf/cut 0.127717 6.041063379946771 1 2 18.123190139840315
pair_coeff 12 39 wf/cut 0.124412 5.999536872422517 1 2 17.998610617267552
pair_coeff 12 40 wf/cut 0.100421 6.367152767929573 1 2 19.101458303788718
pair_coeff 13 13 wf/cut 0.550297 7.066547961746265 1 2 21.199643885238793
pair_coeff 13 14 wf/cut 0.470970 6.84798437757724 1 2 20.54395313273172
pair_coeff 13 15 wf/cut 0.305948 6.234139720557474 1 2 18.702419161672424
pair_coeff 13 16 wf/cut 0.458857 6.702091518082294 1 2 20.10627455424688
pair_coeff 13 17 wf/cut 0.372073 6.494164476750084 1 2 19.48249343025025
pair_coeff 13 18 wf/cut 0.314487 6.432174788842087 1 2 19.29652436652626
pair_coeff 13 19 wf/cut 0.309804 6.390531854157171 1 2 19.171595562471513
pair_coeff 13 20 wf/cut 0.275346 6.756032732095156 1 2 20.268098196285468
pair_coeff 13 21 wf/cut 0.288877 6.755817014102551 1 2 20.267451042307652
pair_coeff 13 22 wf/cut 0.308830 5.879425000161095 1 2 17.638275000483283
pair_coeff 13 23 wf/cut 0.284207 6.8497445004881925 1 2 20.549233501464578
pair_coeff 13 24 wf/cut 0.285853 6.4638463520895115 1 2 19.391539056268535
pair_coeff 13 25 wf/cut 0.381424 6.952910842994874 1 2 20.85873252898462
pair_coeff 13 26 wf/cut 0.292454 6.1613130283141055 1 2 18.483939084942318
pair_coeff 13 27 wf/cut 0.312558 6.442631932062835 1 2 19.327895796188507
pair_coeff 13 28 wf/cut 0.315587 6.619890395721167 1 2 19.8596711871635
pair_coeff 13 29 wf/cut 0.421925 6.900441239237516 1 2 20.701323717712548
pair_coeff 13 30 wf/cut 0.277524 6.589134834507833 1 2 19.7674045035235
pair_coeff 13 31 wf/cut 0.279016 6.755970194682537 1 2 20.267910584047613
pair_coeff 13 32 wf/cut 0.345065 6.671688068448729 1 2 20.015064205346185
pair_coeff 13 33 wf/cut 0.467649 7.066966231238362 1 2 21.200898693715086
pair_coeff 13 34 wf/cut 0.412285 6.848368288265007 1 2 20.54510486479502
pair_coeff 13 35 wf/cut 0.296584 6.23425905911194 1 2 18.70277717733582
pair_coeff 13 36 wf/cut 0.403751 6.702459807412386 1 2 20.10737942223716
pair_coeff 13 37 wf/cut 0.342865 6.494438889291505 1 2 19.483316667874515
pair_coeff 13 38 wf/cut 0.302642 6.4323262444775215 1 2 19.296978733432564
pair_coeff 13 39 wf/cut 0.299337 6.3906653903753785 1 2 19.171996171126136
pair_coeff 13 40 wf/cut 0.275346 6.756032732095156 1 2 20.268098196285468
pair_coeff 14 14 wf/cut 0.391642 6.629549396410893 1 2 19.88864818923268
pair_coeff 14 15 wf/cut 0.226621 6.016400811210637 1 2 18.049202433631912
pair_coeff 14 16 wf/cut 0.379530 6.483674128071082 1 2 19.451022384213246
pair_coeff 14 17 wf/cut 0.292745 6.276026354822916 1 2 18.828079064468746
pair_coeff 14 18 wf/cut 0.235159 6.2144055979415755 1 2 18.643216793824728
pair_coeff 14 19 wf/cut 0.230476 6.172787382997035 1 2 18.518362148991105
pair_coeff 14 20 wf/cut 0.196018 6.538787910119839 1 2 19.616363730359517
pair_coeff 14 21 wf/cut 0.209550 6.538369107168012 1 2 19.615107321504034
pair_coeff 14 22 wf/cut 0.229503 5.661533193978743 1 2 16.98459958193623
pair_coeff 14 23 wf/cut 0.204879 6.632390006238709 1 2 19.89717001871613
pair_coeff 14 24 wf/cut 0.206526 6.246381672050424 1 2 18.73914501615127
pair_coeff 14 25 wf/cut 0.302096 6.734778137463742 1 2 20.204334412391226
pair_coeff 14 26 wf/cut 0.213126 5.94370434405314 1 2 17.831113032159422
pair_coeff 14 27 wf/cut 0.233231 6.2248725061501835 1 2 18.67461751845055
pair_coeff 14 28 wf/cut 0.236259 6.402145618033878 1 2 19.206436854101636
pair_coeff 14 29 wf/cut 0.342598 6.6821466956694 1 2 20.0464400870082
pair_coeff 14 30 wf/cut 0.198196 6.3718164337361864 1 2 19.11544930120856
pair_coeff 14 31 wf/cut 0.199688 6.538652708676239 1 2 19.61595812602872
pair_coeff 14 32 wf/cut 0.265737 6.453725824442914 1 2 19.361177473328745
pair_coeff 14 33 wf/cut 0.388321 6.848555261309869 1 2 20.545665783929607
pair_coeff 14 34 wf/cut 0.332957 6.630097176272377 1 2 19.89029152881713
pair_coeff 14 35 wf/cut 0.217256 6.0166118728379825 1 2 18.049835618513946
pair_coeff 14 36 wf/cut 0.324423 6.484210545760694 1 2 19.45263163728208
pair_coeff 14 37 wf/cut 0.263537 6.276464594313065 1 2 18.829393782939196
pair_coeff 14 38 wf/cut 0.223314 6.2146578822218475 1 2 18.643973646665543
pair_coeff 14 39 wf/cut 0.220009 6.173021960210248 1 2 18.51906588063074
pair_coeff 14 40 wf/cut 0.196018 6.538787910119839 1 2 19.616363730359517
pair_coeff 15 15 wf/cut 0.061600 5.412669704115792 1 2 16.238009112347374
pair_coeff 15 16 wf/cut 0.214509 5.870633388669294 1 2 17.61190016600788
pair_coeff 15 17 wf/cut 0.127724 5.665328065098679 1 2 16.99598419529604
pair_coeff 15 18 wf/cut 0.070138 5.60931576883087 1 2 16.82794730649261
pair_coeff 15 19 wf/cut 0.065455 5.568478936337624 1 2 16.705436809012873
pair_coeff 15 20 wf/cut 0.030997 5.95253426830798 1 2 17.857602804923943
pair_coeff 15 21 wf/cut 0.044529 5.941730116730399 1 2 17.8251903501912
pair_coeff 15 22 wf/cut 0.064482 5.055066526249052 1 2 15.165199578747156
pair_coeff 15 23 wf/cut 0.039858 6.0388189375203165 1 2 18.116456812560948
pair_coeff 15 24 wf/cut 0.041505 5.650569731939204 1 2 16.951709195817614
pair_coeff 15 25 wf/cut 0.137075 6.123955851741878 1 2 18.371867555225634
pair_coeff 15 26 wf/cut 0.048105 5.343933138992498 1 2 16.031799416977496
pair_coeff 15 27 wf/cut 0.068210 5.620115241697351 1 2 16.860345725092053
pair_coeff 15 28 wf/cut 0.071238 5.79714638380999 1 2 17.39143915142997
pair_coeff 15 29 wf/cut 0.177576 6.069943102760143 1 2 18.20982930828043
pair_coeff 15 30 wf/cut 0.033175 5.7826589372196375 1 2 17.347976811658913
pair_coeff 15 31 wf/cut 0.034667 5.948302390882524 1 2 17.84490717264757
pair_coeff 15 32 wf/cut 0.100716 5.845003436795657 1 2 17.53501031038697
pair_coeff 15 33 wf/cut 0.223300 6.235536027214636 1 2 18.706608081643907
pair_coeff 15 34 wf/cut 0.167936 6.018117533790267 1 2 18.054352601370802
pair_coeff 15 35 wf/cut 0.052235 5.415473890209146 1 2 16.246421670627438
pair_coeff 15 36 wf/cut 0.159402 5.872398100194439 1 2 17.617194300583318
pair_coeff 15 37 wf/cut 0.098516 5.667732143982081 1 2 17.003196431946243
pair_coeff 15 38 wf/cut 0.058293 5.612162941341123 1 2 16.83648882402337
pair_coeff 15 39 wf/cut 0.054988 5.571364187563539 1 2 16.714092562690617
pair_coeff 15 40 wf/cut 0.030997 5.95253426830798 1 2 17.857602804923943
pair_coeff 16 16 wf/cut 0.027216 6.337782403912046 1 2 19.01334721173614
pair_coeff 16 17 wf/cut 0.280633 6.130180422228775 1 2 18.390541266686323
pair_coeff 16 18 wf/cut 0.223047 6.068649252074198 1 2 18.205947756222592
pair_coeff 16 19 wf/cut 0.218364 6.027019005823624 1 2 18.081057017470872
pair_coeff 16 20 wf/cut 0.183906 6.393147480752069 1 2 19.179442442256207
pair_coeff 16 21 wf/cut 0.197438 6.392683938124808 1 2 19.178051814374424
pair_coeff 16 22 wf/cut 0.217391 5.515750877499212 1 2 16.547252632497635
pair_coeff 16 23 wf/cut 0.192767 6.486724075272986 1 2 19.46017222581896
pair_coeff 16 24 wf/cut 0.194414 6.100672500483568 1 2 18.302017501450702
pair_coeff 16 25 wf/cut 0.289984 6.588935233441612 1 2 19.766805700324838
pair_coeff 16 26 wf/cut 0.201014 5.79796325726322 1 2 17.39388977178966
pair_coeff 16 27 wf/cut 0.221118 6.0791010484529915 1 2 18.237303145358975
pair_coeff 16 28 wf/cut 0.224147 6.256376087421608 1 2 18.769128262264825
pair_coeff 16 29 wf/cut 0.330485 6.536274979404401 1 2 19.608824938213203
pair_coeff 16 30 wf/cut 0.186084 6.226140636452508 1 2 18.678421909357525
pair_coeff 16 31 wf/cut 0.187576 6.392997387325535 1 2 19.178992161976602
pair_coeff 16 32 wf/cut 0.253625 6.307912958718467 1 2 18.9237388761554
pair_coeff 16 33 wf/cut 0.376209 6.702684222295407 1 2 20.10805266688622
pair_coeff 16 34 wf/cut 0.320845 6.484248553549719 1 2 19.452745660649157
pair_coeff 16 35 wf/cut 0.205144 5.870864049052838 1 2 17.612592147158516
pair_coeff 16 36 wf/cut 0.023134 6.338345846056568 1 2 19.015037538169704
pair_coeff 16 37 wf/cut 0.251425 6.130649043241044 1 2 18.391947129723132
pair_coeff 16 38 wf/cut 0.211202 6.0689241564117395 1 2 18.20677246923522
pair_coeff 16 39 wf/cut 0.207897 6.027275074473145 1 2 18.081825223419436
pair_coeff 16 40 wf/cut 0.183906 6.393147480752069 1 2 19.179442442256207
pair_coeff 17 17 wf/cut 0.193849 5.9233491242788805 1 2 17.770047372836643
pair_coeff 17 18 wf/cut 0.136263 5.8630821184928195 1 2 17.58924635547846
pair_coeff 17 19 wf/cut 0.131580 5.821644218417775 1 2 17.464932655253325
pair_coeff 17 20 wf/cut 0.097122 6.1899864646586105 1 2 18.569959393975832
pair_coeff 17 21 wf/cut 0.110653 6.188546099325202 1 2 18.565638297975607
pair_coeff 17 22 wf/cut 0.130606 5.30983190747035 1 2 15.929495722411051
pair_coeff 17 23 wf/cut 0.105983 6.282921319282791 1 2 18.848763957848373
pair_coeff 17 24 wf/cut 0.107629 5.896489952968157 1 2 17.68946985890447
pair_coeff 17 25 wf/cut 0.203200 6.382089400238762 1 2 19.146268200716285
pair_coeff 17 26 wf/cut 0.114230 5.59320394576633 1 2 16.77961183729899
pair_coeff 17 27 wf/cut 0.134334 5.873649240456693 1 2 17.62094772137008
pair_coeff 17 28 wf/cut 0.137363 6.050910374214647 1 2 18.152731122643942
pair_coeff 17 29 wf/cut 0.243701 6.328963417719822 1 2 18.986890253159466
pair_coeff 17 30 wf/cut 0.099300 6.022666584916778 1 2 18.067999754750335
pair_coeff 17 31 wf/cut 0.100792 6.189544117007458 1 2 18.568632351022373
pair_coeff 17 32 wf/cut 0.166841 6.101625831837799 1 2 18.304877495513395
pair_coeff 17 33 wf/cut 0.289424 6.495083547619462 1 2 19.485250642858386
pair_coeff 17 34 wf/cut 0.234061 6.277022750655092 1 2 18.831068251965277
pair_coeff 17 35 wf/cut 0.118359 5.665971807159278 1 2 16.997915421477835
pair_coeff 17 36 wf/cut 0.225527 6.131165252735328 1 2 18.393495758205983
pair_coeff 17 37 wf/cut 0.164641 5.924348407080925 1 2 17.773045221242775
pair_coeff 17 38 wf/cut 0.124417 5.863848431499796 1 2 17.591545294499387
pair_coeff 17 39 wf/cut 0.121113 5.822344488616284 1 2 17.46703346584885
pair_coeff 17 40 wf/cut 0.097122 6.1899864646586105 1 2 18.569959393975832
pair_coeff 18 18 wf/cut 0.078677 5.806155150598376 1 2 17.41846545179513
pair_coeff 18 19 wf/cut 0.073994 5.765149033334852 1 2 17.29544710000456
pair_coeff 18 20 wf/cut 0.039536 6.143860896897243 1 2 18.431582690691727
pair_coeff 18 21 wf/cut 0.053067 6.136530836242518 1 2 18.409592508727556
pair_coeff 18 22 wf/cut 0.073020 5.2521394224496145 1 2 15.756418267348844
pair_coeff 18 23 wf/cut 0.048396 6.232722071931244 1 2 18.698166215793734
pair_coeff 18 24 wf/cut 0.050043 5.845049472828402 1 2 17.535148418485207
pair_coeff 18 25 wf/cut 0.145613 6.3217567788528175 1 2 18.965270336558454
pair_coeff 18 26 wf/cut 0.056644 5.539473279208256 1 2 16.618419837624767
pair_coeff 18 27 wf/cut 0.076748 5.816985496228361 1 2 17.450956488685083
pair_coeff 18 28 wf/cut 0.079776 5.993977654615634 1 2 17.9819329638469
pair_coeff 18 29 wf/cut 0.186115 6.267859616819192 1 2 18.803578850457576
pair_coeff 18 30 wf/cut 0.041714 5.974983307333975 1 2 17.924949922001925
pair_coeff 18 31 wf/cut 0.043205 6.1411099770057245 1 2 18.42332993101717
pair_coeff 18 32 wf/cut 0.109254 6.042493928204347 1 2 18.12748178461304
pair_coeff 18 33 wf/cut 0.231838 6.433519247230287 1 2 19.300557741690863
pair_coeff 18 34 wf/cut 0.176474 6.216033392034327 1 2 18.648100176102982
pair_coeff 18 35 wf/cut 0.060773 5.611389850569513 1 2 16.834169551708538
pair_coeff 18 36 wf/cut 0.167940 6.070294170144763 1 2 18.21088251043429
pair_coeff 18 37 wf/cut 0.107055 5.865217375098184 1 2 17.595652125294553
pair_coeff 18 38 wf/cut 0.066831 5.808437279092397 1 2 17.425311837277192
pair_coeff 18 39 wf/cut 0.063527 5.767428643819603 1 2 17.302285931458808
pair_coeff 18 40 wf/cut 0.039536 6.143860896897243 1 2 18.431582690691727
pair_coeff 19 19 wf/cut 0.069311 5.724362787504792 1 2 17.173088362514378
pair_coeff 19 20 wf/cut 0.034853 6.10586575299424 1 2 18.31759725898272
pair_coeff 19 21 wf/cut 0.048384 6.0967512192398505 1 2 18.290253657719553
pair_coeff 19 22 wf/cut 0.068337 5.211108138159037 1 2 15.633324414477112
pair_coeff 19 23 wf/cut 0.043714 6.1934329156331 1 2 18.5802987468993
pair_coeff 19 24 wf/cut 0.045360 5.805442925019495 1 2 17.416328775058485
pair_coeff 19 25 wf/cut 0.140930 6.280274061428144 1 2 18.84082218428443
pair_coeff 19 26 wf/cut 0.051961 5.499319146540279 1 2 16.497957439620837
pair_coeff 19 27 wf/cut 0.072065 5.776024303801226 1 2 17.328072911403677
pair_coeff 19 28 wf/cut 0.075093 5.953096206763187 1 2 17.85928862028956
pair_coeff 19 29 wf/cut 0.181432 6.226290621468162 1 2 18.678871864404485
pair_coeff 19 30 wf/cut 0.037031 5.936496588820257 1 2 17.80948976646077
pair_coeff 19 31 wf/cut 0.038522 6.10236911417194 1 2 18.30710734251582
pair_coeff 19 32 wf/cut 0.104571 6.001202451726246 1 2 18.003607355178737
pair_coeff 19 33 wf/cut 0.227155 6.391918936768799 1 2 19.175756810306396
pair_coeff 19 34 wf/cut 0.171791 6.174477574070478 1 2 18.52343272221143
pair_coeff 19 35 wf/cut 0.056090 5.571011278043507 1 2 16.71303383413052
pair_coeff 19 36 wf/cut 0.163258 6.028753613252821 1 2 18.086260839758463
pair_coeff 19 37 wf/cut 0.102372 5.823949131867462 1 2 17.471847395602385
pair_coeff 19 38 wf/cut 0.062148 5.767856883865312 1 2 17.303570651595933
pair_coeff 19 39 wf/cut 0.058844 5.726983480603789 1 2 17.18095044181137
pair_coeff 19 40 wf/cut 0.034853 6.10586575299424 1 2 18.31759725898272
pair_coeff 20 21 wf/cut 0.013926 6.5199210046589675 1 2 19.5597630139769
pair_coeff 20 22 wf/cut 0.033879 5.587459907599181 1 2 16.76237972279754
pair_coeff 20 23 wf/cut 0.009256 6.649574443493311 1 2 19.948723330479933
pair_coeff 20 24 wf/cut 0.010902 6.242374503621665 1 2 18.727123510864995
pair_coeff 20 25 wf/cut 0.106472 6.648355967009086 1 2 19.945067901027258
pair_coeff 20 26 wf/cut 0.017503 5.903567074401621 1 2 17.71070122320486
pair_coeff 20 27 wf/cut 0.037607 6.155943831058615 1 2 18.467831493175847
pair_coeff 20 28 wf/cut 0.040635 6.331503643570952 1 2 18.994510930712856
pair_coeff 20 29 wf/cut 0.146974 6.593018960515583 1 2 19.77905688154675
pair_coeff 20 32 wf/cut 0.070113 6.372029116976672 1 2 19.116087350930016
pair_coeff 20 33 wf/cut 0.192697 6.757970683221281 1 2 20.273912049663842
pair_coeff 20 34 wf/cut 0.137333 6.5414250271565235 1 2 19.62427508146957
pair_coeff 20 35 wf/cut 0.021632 5.967018638311549 1 2 17.901055914934645
pair_coeff 20 36 wf/cut 0.128800 6.395882535691026 1 2 19.187647607073078
pair_coeff 20 37 wf/cut 0.067914 6.194931490620908 1 2 18.584794471862722
pair_coeff 20 38 wf/cut 0.027690 6.155796177211015 1 2 18.467388531633045
pair_coeff 20 39 wf/cut 0.024386 6.119051758363574 1 2 18.357155275090722
pair_coeff 21 21 wf/cut 0.027458 6.480069420606985 1 2 19.440208261820956
pair_coeff 21 22 wf/cut 0.047411 5.581642130693901 1 2 16.7449263920817
pair_coeff 21 23 wf/cut 0.022787 6.583002517343036 1 2 19.74900755202911
pair_coeff 21 24 wf/cut 0.024433 6.191552500203247 1 2 18.574657500609742
pair_coeff 21 25 wf/cut 0.120004 6.646999738911693 1 2 19.94099921673508
pair_coeff 21 26 wf/cut 0.031034 5.878598106878971 1 2 17.63579432063691
pair_coeff 21 27 wf/cut 0.051138 6.1478586796466335 1 2 18.443576038939902
pair_coeff 21 28 wf/cut 0.054167 6.324516380690015 1 2 18.973549142070045
pair_coeff 21 29 wf/cut 0.160505 6.592313711480712 1 2 19.776941134442136
pair_coeff 21 30 wf/cut 0.016104 6.340969704607503 1 2 19.02290911382251
pair_coeff 21 31 wf/cut 0.017596 6.5013402123206046 1 2 19.504020636961812
pair_coeff 21 32 wf/cut 0.083645 6.369348945541728 1 2 19.108046836625185
pair_coeff 21 33 wf/cut 0.206229 6.757540572332879 1 2 20.27262171699864
pair_coeff 21 34 wf/cut 0.150865 6.540596793679068 1 2 19.621790381037204
pair_coeff 21 35 wf/cut 0.035164 5.947844531230358 1 2 17.843533593691074
pair_coeff 21 36 wf/cut 0.142331 6.39500222582037 1 2 19.18500667746111
pair_coeff 21 37 wf/cut 0.081445 6.192166186380409 1 2 18.57649855914123
pair_coeff 21 38 wf/cut 0.041222 6.142414836822247 1 2 18.42724451046674
pair_coeff 21 39 wf/cut 0.037917 6.102763659737872 1 2 18.308290979213616
pair_coeff 21 40 wf/cut 0.013926 6.5199210046589675 1 2 19.5597630139769
pair_coeff 22 22 wf/cut 0.067364 4.698227190160832 1 2 14.094681570482496
pair_coeff 22 23 wf/cut 0.042740 5.6772849911904 1 2 17.0318549735712
pair_coeff 22 24 wf/cut 0.044387 5.289807269665101 1 2 15.869421808995302
pair_coeff 22 25 wf/cut 0.139957 5.768554114508845 1 2 17.305662343526535
pair_coeff 22 26 wf/cut 0.050987 4.984686027270456 1 2 14.954058081811368
pair_coeff 22 27 wf/cut 0.071091 5.262912382415455 1 2 15.788737147246366
pair_coeff 22 28 wf/cut 0.074120 5.439975772862831 1 2 16.319927318588494
pair_coeff 22 29 wf/cut 0.180458 5.714850862757114 1 2 17.144552588271342
pair_coeff 22 30 wf/cut 0.036057 5.418902704026212 1 2 16.256708112078634
pair_coeff 22 31 wf/cut 0.037549 5.585489758070483 1 2 16.756469274211447
pair_coeff 22 32 wf/cut 0.103598 5.489037080971375 1 2 16.467111242914125
pair_coeff 22 33 wf/cut 0.226182 5.8806376350894025 1 2 17.641912905268207
pair_coeff 22 34 wf/cut 0.170818 5.662987686021554 1 2 16.988963058064662
pair_coeff 22 35 wf/cut 0.055117 5.056931123036382 1 2 15.170793369109145
pair_coeff 22 36 wf/cut 0.162284 5.517215784587296 1 2 16.551647353761886
pair_coeff 22 37 wf/cut 0.101398 5.311696859115723 1 2 15.935090577347168
pair_coeff 22 38 wf/cut 0.061175 5.254183030641423 1 2 15.762549091924269
pair_coeff 22 39 wf/cut 0.057870 5.213062357159386 1 2 15.639187071478158
pair_coeff 22 40 wf/cut 0.033879 5.587459907599181 1 2 16.76237972279754
pair_coeff 23 23 wf/cut 0.013420 6.688853536606121 1 2 20.066560609818364
pair_coeff 23 24 wf/cut 0.019763 6.29527868599085 1 2 18.885836057972547
pair_coeff 23 25 wf/cut 0.085206 6.741392723436803 1 2 20.22417817031041
pair_coeff 23 26 wf/cut 0.026364 5.978305270632397 1 2 17.93491581189719
pair_coeff 23 27 wf/cut 0.000342 6.244253298502354 1 2 18.732759895507062
pair_coeff 23 28 wf/cut 0.000366 6.4204818546224995 1 2 19.261445563867497
pair_coeff 23 29 wf/cut 0.071890 6.686432938070228 1 2 20.059298814210685
pair_coeff 23 30 wf/cut 0.011434 6.460111302128625 1 2 19.380333906385875
pair_coeff 23 31 wf/cut 0.012925 6.617996254538358 1 2 19.853988763615074
pair_coeff 23 32 wf/cut 0.078974 6.4641118645001 1 2 19.3923355935003
pair_coeff 23 33 wf/cut 0.073358 6.85155566549562 1 2 20.55466699648686
pair_coeff 23 34 wf/cut 0.080693 6.634779187210656 1 2 19.90433756163197
pair_coeff 23 35 wf/cut 0.030493 6.046847416569171 1 2 18.14054224970751
pair_coeff 23 36 wf/cut 0.061166 6.489185414364156 1 2 19.467556243092467
pair_coeff 23 37 wf/cut 0.076775 6.2869559403051 1 2 18.860867820915303
pair_coeff 23 38 wf/cut 0.036551 6.240136548485556 1 2 18.72040964545667
pair_coeff 23 39 wf/cut 0.033247 6.2011686854634664 1 2 18.6035060563904
pair_coeff 23 40 wf/cut 0.009256 6.649574443493311 1 2 19.948723330479933
pair_coeff 24 24 wf/cut 0.021409 5.902825373061459 1 2 17.708476119184375
pair_coeff 24 25 wf/cut 0.116980 6.355020618222843 1 2 19.065061854668528
pair_coeff 24 26 wf/cut 0.028010 5.588184701124206 1 2 16.764554103372618
pair_coeff 24 27 wf/cut 0.048114 5.856453272809193 1 2 17.56935981842758
pair_coeff 24 28 wf/cut 0.051143 6.03282984385001 1 2 18.09848953155003
pair_coeff 24 29 wf/cut 0.157481 6.300272873273843 1 2 18.90081861982153
pair_coeff 24 30 wf/cut 0.013080 6.05885560137348 1 2 18.17656680412044
pair_coeff 24 31 wf/cut 0.014572 6.219293562690735 1 2 18.657880688072204
pair_coeff 24 32 wf/cut 0.080621 6.077365593674358 1 2 18.232096781023074
pair_coeff 24 33 wf/cut 0.203205 6.465539023765016 1 2 19.396617071295047
pair_coeff 24 34 wf/cut 0.147841 6.248599086448351 1 2 18.745797259345053
pair_coeff 24 35 wf/cut 0.032140 5.6574738585901345 1 2 16.972421575770404
pair_coeff 24 36 wf/cut 0.139307 6.102951668547555 1 2 18.308855005642666
pair_coeff 24 37 wf/cut 0.078421 5.900160965208208 1 2 17.700482895624624
pair_coeff 24 38 wf/cut 0.038198 5.85153222065546 1 2 17.55459666196638
pair_coeff 24 39 wf/cut 0.034893 5.812153931855011 1 2 17.436461795565034
pair_coeff 24 40 wf/cut 0.010902 6.242374503621665 1 2 18.727123510864995
pair_coeff 25 25 wf/cut 0.062978 6.840818860381698 1 2 20.522456581145093
pair_coeff 25 26 wf/cut 0.123581 6.051811079871612 1 2 18.155433239614837
pair_coeff 25 27 wf/cut 0.001064 6.332285213812248 1 2 18.996855641436742
pair_coeff 25 28 wf/cut 0.001085 6.509542326637676 1 2 19.528626979913028
pair_coeff 25 29 wf/cut 0.425474 6.7877218996841355 1 2 20.363165699052406
pair_coeff 25 30 wf/cut 0.108651 6.481102402445426 1 2 19.44330720733628
pair_coeff 25 31 wf/cut 0.110142 6.647901648052044 1 2 19.94370494415613
pair_coeff 25 32 wf/cut 0.176191 6.560327886240045 1 2 19.680983658720134
pair_coeff 25 33 wf/cut 0.484160 6.953839371357665 1 2 20.861518114072993
pair_coeff 25 34 wf/cut 0.381459 6.735769622233203 1 2 20.20730886669961
pair_coeff 25 35 wf/cut 0.127710 6.1245540687340725 1 2 18.37366220620222
pair_coeff 25 36 wf/cut 0.086889 6.589926019306955 1 2 19.769778057920867
pair_coeff 25 37 wf/cut 0.173991 6.38305646617526 1 2 19.14916939852578
pair_coeff 25 38 wf/cut 0.133768 6.322442926130092 1 2 18.967328778390275
pair_coeff 25 39 wf/cut 0.130463 6.280926022691235 1 2 18.842778068073706
pair_coeff 25 40 wf/cut 0.106472 6.648355967009086 1 2 19.945067901027258
pair_coeff 26 26 wf/cut 0.034611 5.278051554722805 1 2 15.834154664168416
pair_coeff 26 27 wf/cut 0.054715 5.550632394717641 1 2 16.651897184152922
pair_coeff 26 28 wf/cut 0.057743 5.727313013729271 1 2 17.18193904118781
pair_coeff 26 29 wf/cut 0.164082 5.997401234701861 1 2 17.99220370410558
pair_coeff 26 30 wf/cut 0.019681 5.729200436106479 1 2 17.187601308319437
pair_coeff 26 31 wf/cut 0.021172 5.893502125092778 1 2 17.680506375278334
pair_coeff 26 32 wf/cut 0.087222 5.77355467816977 1 2 17.32066403450931
pair_coeff 26 33 wf/cut 0.209805 6.162846524069043 1 2 18.48853957220713
pair_coeff 26 34 wf/cut 0.154442 5.945670315140756 1 2 17.837010945422268
pair_coeff 26 35 wf/cut 0.038740 5.3486854588231765 1 2 16.04605637646953
pair_coeff 26 36 wf/cut 0.145908 5.799973083941243 1 2 17.39991925182373
pair_coeff 26 37 wf/cut 0.085022 5.596251927245512 1 2 16.788755781736537
pair_coeff 26 38 wf/cut 0.044798 5.544164768287125 1 2 16.632494304861375
pair_coeff 26 39 wf/cut 0.041494 5.504054682438701 1 2 16.512164047316105
pair_coeff 26 40 wf/cut 0.017503 5.903567074401621 1 2 17.71070122320486
pair_coeff 27 27 wf/cut 0.055422 5.8277356350076115 1 2 17.483206905022833
pair_coeff 27 28 wf/cut 0.057461 6.0048083393750415 1 2 18.014425018125124
pair_coeff 27 29 wf/cut 0.184186 6.278368151196274 1 2 18.83510445358882
pair_coeff 27 30 wf/cut 0.039785 5.986861716352022 1 2 17.960585149056065
pair_coeff 27 31 wf/cut 0.041277 6.152881477214971 1 2 18.458644431644913
pair_coeff 27 32 wf/cut 0.107326 6.053140955180234 1 2 18.159422865540705
pair_coeff 27 33 wf/cut 0.229910 6.444000765960297 1 2 19.33200229788089
pair_coeff 27 34 wf/cut 0.174546 6.226529663564308 1 2 18.679588990692924
pair_coeff 27 35 wf/cut 0.058845 5.622457081906772 1 2 16.867371245720314
pair_coeff 27 36 wf/cut 0.001228 6.080799532766481 1 2 18.242398598299445
pair_coeff 27 37 wf/cut 0.105126 5.875867449320084 1 2 17.627602347960252
pair_coeff 27 38 wf/cut 0.064903 5.819413545043322 1 2 17.458240635129968
pair_coeff 27 39 wf/cut 0.061598 5.778457730344957 1 2 17.335373191034872
pair_coeff 27 40 wf/cut 0.037607 6.155943831058615 1 2 18.467831493175847
pair_coeff 28 28 wf/cut 0.059908 6.1818125994432265 1 2 18.54543779832968
pair_coeff 28 29 wf/cut 0.187215 6.4556028384801145 1 2 19.366808515440344
pair_coeff 28 30 wf/cut 0.042814 6.162677260323304 1 2 18.488031780969912
pair_coeff 28 31 wf/cut 0.044305 6.329122536684595 1 2 18.987367610053788
pair_coeff 28 32 wf/cut 0.110354 6.230341958421634 1 2 18.691025875264902
pair_coeff 28 33 wf/cut 0.232938 6.621259842822526 1 2 19.863779528467578
pair_coeff 28 34 wf/cut 0.177574 6.403800703379438 1 2 19.211402110138312
pair_coeff 28 35 wf/cut 0.061873 5.7993639894571976 1 2 17.39809196837159
pair_coeff 28 36 wf/cut 0.001252 6.258048801889918 1 2 18.774146405669754
pair_coeff 28 37 wf/cut 0.108154 6.053088642675554 1 2 18.159265928026663
pair_coeff 28 38 wf/cut 0.067931 5.9963870692049515 1 2 17.989161207614856
pair_coeff 28 39 wf/cut 0.064626 5.955407688864699 1 2 17.866223066594095
pair_coeff 28 40 wf/cut 0.040635 6.331503643570952 1 2 18.994510930712856
pair_coeff 29 29 wf/cut 0.293553 6.734901221669089 1 2 20.204703665007266
pair_coeff 29 30 wf/cut 0.149152 6.425928662140226 1 2 19.277785986420678
pair_coeff 29 31 wf/cut 0.150644 6.592808608254519 1 2 19.77842582476356
pair_coeff 29 32 wf/cut 0.216693 6.5069139355650485 1 2 19.520741806695145
pair_coeff 29 33 wf/cut 0.339277 6.901174934210456 1 2 20.703524802631367
pair_coeff 29 34 wf/cut 0.283913 6.682893550119813 1 2 20.048680650359437
pair_coeff 29 35 wf/cut 0.168212 6.070294170144763 1 2 18.21088251043429
pair_coeff 29 36 wf/cut 0.275379 6.53700493974828 1 2 19.61101481924484
pair_coeff 29 37 wf/cut 0.214493 6.329613164394258 1 2 18.988839493182773
pair_coeff 29 38 wf/cut 0.174270 6.268290266697097 1 2 18.80487080009129
pair_coeff 29 39 wf/cut 0.170965 6.226677571408917 1 2 18.68003271422675
pair_coeff 29 40 wf/cut 0.146974 6.593018960515583 1 2 19.77905688154675
pair_coeff 30 31 wf/cut 0.006243 6.436867325811939 1 2 19.310601977435816
pair_coeff 30 32 wf/cut 0.072292 6.2043654791136875 1 2 18.613096437341063
pair_coeff 30 33 wf/cut 0.194875 6.590992227279316 1 2 19.77297668183795
pair_coeff 30 34 wf/cut 0.139512 6.374322689731052 1 2 19.122968069193156
pair_coeff 30 35 wf/cut 0.023810 5.794680761693587 1 2 17.38404228508076
pair_coeff 30 36 wf/cut 0.130978 6.228734363673756 1 2 18.68620309102127
pair_coeff 30 37 wf/cut 0.070092 6.027237821338098 1 2 18.081713464014296
pair_coeff 30 38 wf/cut 0.029868 5.985230649978958 1 2 17.955691949936874
pair_coeff 30 39 wf/cut 0.026564 5.947631895281645 1 2 17.842895685844933
pair_coeff 31 31 wf/cut 0.007734 6.567831037515117 1 2 19.703493112545353
pair_coeff 31 32 wf/cut 0.073783 6.371180012524027 1 2 19.11354003757208
pair_coeff 31 33 wf/cut 0.196367 6.757844212311977 1 2 20.273532636935933
pair_coeff 31 34 wf/cut 0.141003 6.541152469250684 1 2 19.623457407752053
pair_coeff 31 35 wf/cut 0.025302 5.958948966149641 1 2 17.87684689844892
pair_coeff 31 36 wf/cut 0.132469 6.395617784448214 1 2 19.18685335334464
pair_coeff 31 37 wf/cut 0.071583 6.194052355515639 1 2 18.58215706654692
pair_coeff 31 38 wf/cut 0.031360 6.150442231391871 1 2 18.451326694175613
pair_coeff 31 39 wf/cut 0.028055 6.1123674095484715 1 2 18.337102228645414
pair_coeff 32 32 wf/cut 0.139832 6.280338147956703 1 2 18.841014443870108
pair_coeff 32 33 wf/cut 0.262416 6.672807379130834 1 2 20.018422137392502
pair_coeff 32 34 wf/cut 0.207052 6.454996866244807 1 2 19.364990598734423
pair_coeff 32 35 wf/cut 0.091351 5.846082838683163 1 2 17.53824851604949
pair_coeff 32 36 wf/cut 0.198518 6.309181376440496 1 2 18.92754412932149
pair_coeff 32 37 wf/cut 0.137633 6.103047888395006 1 2 18.30914366518502
pair_coeff 32 38 wf/cut 0.097409 6.043739153604026 1 2 18.131217460812078
pair_coeff 32 39 wf/cut 0.094104 6.002359484884067 1 2 18.007078454652202
pair_coeff 32 40 wf/cut 0.070113 6.372029116976672 1 2 19.116087350930016
pair_coeff 33 33 wf/cut 0.385000 7.067563273437359 1 2 21.202689820312077
pair_coeff 33 34 wf/cut 0.329636 6.849136659067028 1 2 20.547409977201085
pair_coeff 33 35 wf/cut 0.213935 6.235761878631987 1 2 18.70728563589596
pair_coeff 33 36 wf/cut 0.321102 6.703247958074066 1 2 20.109743874222197
pair_coeff 33 37 wf/cut 0.260216 6.49554680247315 1 2 19.48664040741945
pair_coeff 33 38 wf/cut 0.219993 6.433800819712532 1 2 19.3014024591376
pair_coeff 33 39 wf/cut 0.216688 6.3921696304391835 1 2 19.17650889131755
pair_coeff 33 40 wf/cut 0.192697 6.757970683221281 1 2 20.273912049663842
pair_coeff 34 34 wf/cut 0.274272 6.630885251270346 1 2 19.892655753811038
pair_coeff 34 35 wf/cut 0.158571 6.018506537122348 1 2 18.055519611367043
pair_coeff 34 36 wf/cut 0.265738 6.485029527646095 1 2 19.455088582938284
pair_coeff 34 37 wf/cut 0.204852 6.27772691468288 1 2 18.83318074404864
pair_coeff 34 38 wf/cut 0.164629 6.216488307385695 1 2 18.649464922157083
pair_coeff 34 39 wf/cut 0.161324 6.17490549231641 1 2 18.52471647694923
pair_coeff 34 40 wf/cut 0.137333 6.5414250271565235 1 2 19.62427508146957
pair_coeff 35 35 wf/cut 0.042870 5.4194558891562785 1 2 16.258367667468836
pair_coeff 35 36 wf/cut 0.150037 5.8728226163551005 1 2 17.6184678490653
pair_coeff 35 37 wf/cut 0.089151 5.6688305293155095 1 2 17.006491587946527
pair_coeff 35 38 wf/cut 0.048928 5.615420402551611 1 2 16.846261207654834
pair_coeff 35 39 wf/cut 0.045623 5.575027083025114 1 2 16.725081249075345
pair_coeff 35 40 wf/cut 0.021632 5.967018638311549 1 2 17.901055914934645
pair_coeff 36 36 wf/cut 0.019052 6.339149093005715 1 2 19.017447279017144
pair_coeff 36 37 wf/cut 0.196319 6.131909094415353 1 2 18.39572728324606
pair_coeff 36 38 wf/cut 0.156095 6.07081046198845 1 2 18.21243138596535
pair_coeff 36 39 wf/cut 0.152791 6.029219810679759 1 2 18.087659432039278
pair_coeff 36 40 wf/cut 0.128800 6.395882535691026 1 2 19.187647607073078
pair_coeff 37 37 wf/cut 0.135433 5.925773208988131 1 2 17.777319626964392
pair_coeff 37 38 wf/cut 0.095209 5.866481553533799 1 2 17.599444660601396
pair_coeff 37 39 wf/cut 0.091905 5.82512551794993 1 2 17.47537655384979
pair_coeff 37 40 wf/cut 0.067914 6.194931490620908 1 2 18.584794471862722
pair_coeff 38 38 wf/cut 0.054986 5.811826808320624 1 2 17.43548042496187
pair_coeff 38 39 wf/cut 0.051681 5.771184604473262 1 2 17.313553813419787
pair_coeff 38 40 wf/cut 0.027690 6.155796177211015 1 2 18.467388531633045
pair_coeff 39 39 wf/cut 0.048377 5.730699270006254 1 2 17.192097810018762
pair_coeff 39 40 wf/cut 0.024386 6.119051758363574 1 2 18.357155275090722
pair_coeff 40 40 wf/cut 0.000395 6.921680089176746 1 11 20.76504026753024
pair_coeff 20 40 wf/cut 0.000395 6.921680089176746 1 11 20.76504026753024
pair_coeff 20 20 wf/cut 0.000395 6.921680089176746 1 11 20.76504026753024
pair_coeff 10 20 wf/cut 0.002986 6.718011650959061 1 4 20.154034952877183
pair_coeff 10 40 wf/cut 0.002986 6.718011650959061 1 4 20.154034952877183
pair_coeff 20 30 wf/cut 0.002573 6.745752996427961 1 4 20.237258989283884
pair_coeff 20 31 wf/cut 0.004064 6.883184689300606 1 4 20.649554067901818
pair_coeff 30 40 wf/cut 0.002573 6.745752996427961 1 4 20.237258989283884
pair_coeff 31 40 wf/cut 0.004064 6.883184689300606 1 4 20.649554067901818
pair_coeff 3 3 coul/debye 35.
pair_coeff 3 5 coul/debye 35.
pair_coeff 3 7 coul/debye 35.
pair_coeff 3 8 coul/debye 35.
pair_coeff 3 16 coul/debye 35.
pair_coeff 3 23 coul/debye 35.
pair_coeff 3 25 coul/debye 35.
pair_coeff 3 36 coul/debye 35.
pair_coeff 5 5 coul/debye 35.
pair_coeff 5 7 coul/debye 35.
pair_coeff 5 8 coul/debye 35.
pair_coeff 5 16 coul/debye 35.
pair_coeff 5 23 coul/debye 35.
pair_coeff 5 25 coul/debye 35.
pair_coeff 5 27 coul/debye 35.
pair_coeff 5 28 coul/debye 35.
pair_coeff 5 36 coul/debye 35.
pair_coeff 7 7 coul/debye 35.
pair_coeff 7 8 coul/debye 35.
pair_coeff 7 16 coul/debye 35.
pair_coeff 7 23 coul/debye 35.
pair_coeff 7 25 coul/debye 35.
pair_coeff 7 27 coul/debye 35.
pair_coeff 7 28 coul/debye 35.
pair_coeff 7 36 coul/debye 35.
pair_coeff 8 8 coul/debye 35.
pair_coeff 8 16 coul/debye 35.
pair_coeff 8 23 coul/debye 35.
pair_coeff 8 25 coul/debye 35.
pair_coeff 8 27 coul/debye 35.
pair_coeff 8 28 coul/debye 35.
pair_coeff 8 36 coul/debye 35.
pair_coeff 16 16 coul/debye 35.
pair_coeff 16 23 coul/debye 35.
pair_coeff 16 25 coul/debye 35.
pair_coeff 16 27 coul/debye 35.
pair_coeff 16 28 coul/debye 35.
pair_coeff 16 36 coul/debye 35.
pair_coeff 23 23 coul/debye 35.
pair_coeff 23 25 coul/debye 35.
pair_coeff 23 36 coul/debye 35.
pair_coeff 25 25 coul/debye 35.
pair_coeff 25 27 coul/debye 35.
pair_coeff 25 28 coul/debye 35.
pair_coeff 25 36 coul/debye 35.
pair_coeff 27 27 coul/debye 35.
pair_coeff 27 28 coul/debye 35.
pair_coeff 27 36 coul/debye 35.
pair_coeff 28 28 coul/debye 35.
pair_coeff 28 36 coul/debye 35.
pair_coeff 36 36 coul/debye 35.
pair_coeff 3 27 coul/debye 35.
pair_coeff 3 28 coul/debye 35.
pair_coeff 23 27 coul/debye 35.
pair_coeff 23 28 coul/debye 35.

special_bonds fene
Finding 1-2 1-3 1-4 neighbors ...
  special bond factors lj:    0        1        1       
  special bond factors coul:  0        1        1       
     2 = max # of 1-2 neighbors
     6 = max # of special neighbors
  special bonds CPU = 0.000 seconds
neighbor  3.5 multi
neigh_modify  every 10 delay 0

comm_style    tiled

timer timeout 35:50:00
New timer settings: style=normal  mode=nosync  timeout=11:50:00

velocity      all create $T 494211
velocity      all create 385 494211
fix           fxnve   all nve
fix           fxlange all langevin $T $T 40000.0 32784
fix           fxlange all langevin 385 $T 40000.0 32784
fix           fxlange all langevin 385 385 40000.0 32784

dump          1 all custom 100000 $d-$T.xyz id mol type q xu yu zu
dump          1 all custom 100000 TIA_WT-$T.xyz id mol type q xu yu zu
dump          1 all custom 100000 TIA_WT-385.xyz id mol type q xu yu zu
dump_modify   1 sort id

#compute       rad all gyration
#compute       dis all pair/local dist
#compute       maximo all reduce max c_dis
#compute       mean all reduce ave c_dis

thermo        1000000
thermo_style  custom step pe temp  press ke lx ly lz pzz  spcpu density
thermo_modify flush yes

restart      10000000 restart$T
restart      10000000 restart385

####Minimization

timestep 0.01
run 2000
Neighbor list info ...
  update every 10 steps, delay 0 steps, check yes
  max neighbors/atom: 2000, page size: 100000
  master list distance cutoff = 38.5
  ghost atom cutoff = 38.5
  binsize = 8.7926654, bins = 35 35 35
  2 neighbor lists, perpetual/occasional/extra = 2 0 0
  (1) pair wf/cut, perpetual
      attributes: half, newton on
      pair build: half/multi/newton
      stencil: half/multi/3d/newton
      bin: standard
  (2) pair coul/debye, perpetual, skip from (1)
      attributes: half, newton on
      pair build: skip
      stencil: none
      bin: none
Per MPI rank memory allocation (min/avg/max) = 8.891 | 8.953 | 9.133 Mbytes
Step PotEng Temp Press KinEng Lx Ly Lz Pzz S/CPU Density 
       0   -13.356653          385   0.44509346    110.17074          300          300          300   0.32746459            0 0.00066940445 
    2000   -11.074479    377.14262   0.42419073    107.92229          300          300          300   0.32578383    42066.294 0.00066940445 
Loop time of 0.0475574 on 6 procs for 2000 steps with 97 atoms

Performance: 36.335 ns/day, 0.661 hours/ns, 42054.414 timesteps/s
99.7% CPU use with 6 MPI tasks x no OpenMP threads

MPI task timing breakdown:
Section |  min time  |  avg time  |  max time  |%varavg| %total
---------------------------------------------------------------
Pair    | 0.00050259 | 0.0033222  | 0.016721   |  10.4 |  6.99
Bond    | 5.8651e-05 | 0.00042152 | 0.0020654  |   0.0 |  0.89
Neigh   | 0          | 0          | 0          |   0.0 |  0.00
Comm    | 0.017349   | 0.03865    | 0.043721   |   4.9 | 81.27
Output  | 2.408e-05  | 3.0398e-05 | 3.7193e-05 |   0.0 |  0.06
Modify  | 0.00024128 | 0.0020272  | 0.010344   |   8.3 |  4.26
Other   |            | 0.003106   |            |       |  6.53

Nlocal:        16.1667 ave          96 max           0 min
Histogram: 5 0 0 0 0 0 0 0 0 1
Nghost:        39.5000 ave          57 max           0 min
Histogram: 1 0 0 0 1 0 0 0 1 3
Neighs:        73.5000 ave         436 max           0 min
Histogram: 5 0 0 0 0 0 0 0 0 1

Total # of neighbors = 441
Ave neighs/atom = 4.5463918
Ave special neighs/atom = 1.9793814
Neighbor list builds = 0
Dangerous builds = 0

timestep 0.1
run 2000
Per MPI rank memory allocation (min/avg/max) = 8.891 | 8.953 | 9.133 Mbytes
Step PotEng Temp Press KinEng Lx Ly Lz Pzz S/CPU Density 
    2000   -11.074479    377.14262   0.42419073    107.92229          300          300          300   0.32578383            0 0.00066940445 
    4000    7.2799609    316.72605  -0.18755706    90.633618          300          300          300  -0.12721119    41904.279 0.00066940445 
Loop time of 0.0477406 on 6 procs for 2000 steps with 97 atoms

Performance: 361.956 ns/day, 0.066 hours/ns, 41893.048 timesteps/s
99.8% CPU use with 6 MPI tasks x no OpenMP threads

MPI task timing breakdown:
Section |  min time  |  avg time  |  max time  |%varavg| %total
---------------------------------------------------------------
Pair    | 0.0005548  | 0.0033132  | 0.016648   |  10.4 |  6.94
Bond    | 6.7234e-05 | 0.0004319  | 0.0021369  |   0.0 |  0.90
Neigh   | 0          | 0          | 0          |   0.0 |  0.00
Comm    | 0.017535   | 0.038851   | 0.043962   |   4.8 | 81.38
Output  | 2.408e-05  | 2.9882e-05 | 3.6001e-05 |   0.0 |  0.06
Modify  | 0.00024343 | 0.0020179  | 0.010301   |   8.2 |  4.23
Other   |            | 0.003097   |            |       |  6.49

Nlocal:        16.1667 ave          96 max           0 min
Histogram: 5 0 0 0 0 0 0 0 0 1
Nghost:        39.5000 ave          57 max           0 min
Histogram: 1 0 0 0 1 0 0 0 1 3
Neighs:        73.5000 ave         436 max           0 min
Histogram: 5 0 0 0 0 0 0 0 0 1

Total # of neighbors = 441
Ave neighs/atom = 4.5463918
Ave special neighs/atom = 1.9793814
Neighbor list builds = 0
Dangerous builds = 0

timestep 1
run 2000
Per MPI rank memory allocation (min/avg/max) = 8.891 | 8.953 | 9.133 Mbytes
Step PotEng Temp Press KinEng Lx Ly Lz Pzz S/CPU Density 
    4000    7.2799609    316.72605  -0.18755706    90.633618          300          300          300  -0.12721119            0 0.00066940445 
    6000    11.667395    321.35913  -0.12843678     91.95941          300          300          300  0.029926913    41827.804 0.00066940445 
Loop time of 0.0478764 on 6 procs for 2000 steps with 97 atoms

Performance: 3609.291 ns/day, 0.007 hours/ns, 41774.203 timesteps/s
99.8% CPU use with 6 MPI tasks x no OpenMP threads

MPI task timing breakdown:
Section |  min time  |  avg time  |  max time  |%varavg| %total
---------------------------------------------------------------
Pair    | 0.00055122 | 0.0033031  | 0.016417   |  10.2 |  6.90
Bond    | 6.2227e-05 | 0.0004189  | 0.0020516  |   0.0 |  0.87
Neigh   | 0.000278   | 0.00028257 | 0.0002861  |   0.0 |  0.59
Comm    | 0.017701   | 0.038688   | 0.043705   |   4.8 | 80.81
Output  | 2.3127e-05 | 3.7273e-05 | 8.4162e-05 |   0.0 |  0.08
Modify  | 0.00024629 | 0.0020341  | 0.010301   |   8.2 |  4.25
Other   |            | 0.003113   |            |       |  6.50

Nlocal:        16.1667 ave          95 max           0 min
Histogram: 5 0 0 0 0 0 0 0 0 1
Nghost:        38.8333 ave          58 max           0 min
Histogram: 1 0 0 0 1 0 0 0 3 1
Neighs:        73.5000 ave         430 max           0 min
Histogram: 5 0 0 0 0 0 0 0 0 1

Total # of neighbors = 441
Ave neighs/atom = 4.5463918
Ave special neighs/atom = 1.9793814
Neighbor list builds = 5
Dangerous builds = 0

####Collapse the IDR

timestep 10
run 1000000
Per MPI rank memory allocation (min/avg/max) = 8.892 | 8.974 | 9.133 Mbytes
Step PotEng Temp Press KinEng Lx Ly Lz Pzz S/CPU Density 
    6000    11.667395    321.35913  -0.12843678     91.95941          300          300          300  0.029926913            0 0.00066940445 
 1000000    3.7221892    484.66596 -0.005087033    138.69093          300          300          300   0.10806574    25020.134 0.00066940445 
 1006000    4.2262433    352.23659   0.04606615    100.79523          300          300          300    0.1623682    29797.803 0.00066940445 
Loop time of 39.9294 on 6 procs for 1000000 steps with 97 atoms

Performance: 21638.203 ns/day, 0.001 hours/ns, 25044.216 timesteps/s
99.7% CPU use with 6 MPI tasks x no OpenMP threads

MPI task timing breakdown:
Section |  min time  |  avg time  |  max time  |%varavg| %total
---------------------------------------------------------------
Pair    | 1.223      | 4.6717     | 8.4371     | 120.2 | 11.70
Bond    | 0.07436    | 0.21617    | 0.36424    |  21.4 |  0.54
Neigh   | 2.1099     | 2.1261     | 2.1414     |   0.7 |  5.32
Comm    | 26.207     | 30.581     | 34.716     |  55.4 | 76.59
Output  | 0.0012121  | 0.0013902  | 0.0020156  |   0.8 |  0.00
Modify  | 0.32935    | 1.0263     | 1.7706     |  49.6 |  2.57
Other   |            | 1.307      |            |       |  3.27

Nlocal:        16.1667 ave          64 max           0 min
Histogram: 4 0 0 0 0 1 0 0 0 1
Nghost:        41.5000 ave          76 max           0 min
Histogram: 2 0 0 0 1 0 0 0 1 2
Neighs:        255.833 ave        1084 max           0 min
Histogram: 4 0 0 0 1 0 0 0 0 1

Total # of neighbors = 1535
Ave neighs/atom = 15.824742
Ave special neighs/atom = 1.9793814
Neighbor list builds = 28990
Dangerous builds = 0

####Replicate initial system

replicate 4 4 4
Replicating atoms ...
  orthogonal box = (0.0000000 0.0000000 0.0000000) to (1200.0000 1200.0000 1200.0000)
  1 by 2 by 3 MPI processor grid
  6208 atoms
  6144 bonds
Finding 1-2 1-3 1-4 neighbors ...
  special bond factors lj:    0        1        1       
  special bond factors coul:  0        1        1       
     2 = max # of 1-2 neighbors
     6 = max # of special neighbors
  special bonds CPU = 0.000 seconds
  replicate CPU = 0.001 seconds

run 1
Per MPI rank memory allocation (min/avg/max) = 11.62 | 11.65 | 11.68 Mbytes
Step PotEng Temp Press KinEng Lx Ly Lz Pzz S/CPU Density 
 1006000    270.47957    348.66145   0.04606615     6450.895         1200         1200         1200    0.1623682            0 0.00066940445 
 1006001    203.54811    352.14652  0.048045647    6515.3754         1200         1200         1200   0.17283835    1535.8125 0.00066940445 
Loop time of 0.000711997 on 6 procs for 1 steps with 6208 atoms

Performance: 1213.488 ns/day, 0.020 hours/ns, 1404.500 timesteps/s
99.8% CPU use with 6 MPI tasks x no OpenMP threads

MPI task timing breakdown:
Section |  min time  |  avg time  |  max time  |%varavg| %total
---------------------------------------------------------------
Pair    | 0.00030398 | 0.00040201 | 0.00050116 |   0.0 | 56.46
Bond    | 1.3828e-05 | 1.8318e-05 | 2.2888e-05 |   0.0 |  2.57
Neigh   | 0          | 0          | 0          |   0.0 |  0.00
Comm    | 3.3855e-05 | 0.00013757 | 0.00023508 |   0.0 | 19.32
Output  | 2.9087e-05 | 5.0227e-05 | 0.00011301 |   0.0 |  7.05
Modify  | 4.1008e-05 | 5.4757e-05 | 6.628e-05  |   0.0 |  7.69
Other   |            | 4.911e-05  |            |       |  6.90

Nlocal:        1034.67 ave        1280 max         776 min
Histogram: 2 0 0 0 0 2 0 0 0 2
Nghost:        765.333 ave        1112 max         304 min
Histogram: 2 0 0 0 0 0 0 2 0 2
Neighs:        16362.7 ave       20736 max       12272 min
Histogram: 2 0 0 0 2 0 0 0 0 2

Total # of neighbors = 98176
Ave neighs/atom = 15.814433
Ave special neighs/atom = 1.9793814
Neighbor list builds = 0
Dangerous builds = 0

####Smaller box size

#change_box all x final 0 300 y final 0 300 z final 0 300 remap

####Loop to compress

variable myDensity equal density
label loop
variable a loop 1000
change_box all x scale 0.95 y scale 0.95 z scale 0.95 remap
Changing box ...
  orthogonal box = (30.000000 0.0000000 0.0000000) to (1170.0000 1200.0000 1200.0000)
  orthogonal box = (30.000000 30.000000 0.0000000) to (1170.0000 1170.0000 1200.0000)
  orthogonal box = (30.000000 30.000000 30.000000) to (1170.0000 1170.0000 1170.0000)
run 8000
Per MPI rank memory allocation (min/avg/max) = 11.62 | 11.65 | 11.68 Mbytes
Step PotEng Temp Press KinEng Lx Ly Lz Pzz S/CPU Density 
 1006001    2499.3803    352.14652    1.7502723    6515.3754         1140         1140         1140    1.9219945            0 0.0007807604 
 1014001    1183.8802    386.88397  0.028012732    7158.0839         1140         1140         1140  0.028571472    1699.4602 0.0007807604 
Loop time of 4.70747 on 6 procs for 8000 steps with 6208 atoms

Performance: 1468.305 ns/day, 0.016 hours/ns, 1699.427 timesteps/s
99.6% CPU use with 6 MPI tasks x no OpenMP threads

MPI task timing breakdown:
Section |  min time  |  avg time  |  max time  |%varavg| %total
---------------------------------------------------------------
Pair    | 1.5798     | 2.1312     | 3.1797     |  47.7 | 45.27
Bond    | 0.064493   | 0.087192   | 0.12389    |   8.4 |  1.85
Neigh   | 0.46114    | 0.46616    | 0.47154    |   0.6 |  9.90
Comm    | 0.29784    | 1.5295     | 2.1825     |  66.0 | 32.49
Output  | 4.1008e-05 | 8.1182e-05 | 0.00016594 |   0.0 |  0.00
Modify  | 0.32568    | 0.4386     | 0.62285    |  18.4 |  9.32
Other   |            | 0.05476    |            |       |  1.16

Nlocal:        1034.67 ave        1524 max         773 min
Histogram: 3 1 0 0 0 0 0 0 1 1
Nghost:        629.000 ave        1126 max         265 min
Histogram: 2 0 1 1 0 0 0 0 0 2
Neighs:        12904.5 ave       20606 max        8417 min
Histogram: 2 2 0 0 0 0 0 0 0 2

Total # of neighbors = 77427
Ave neighs/atom = 12.472133
Ave special neighs/atom = 1.9793814
Neighbor list builds = 339
Dangerous builds = 0

if "${myDensity} > 1.0" then "jump SELF break"

next a
jump SELF loop
variable a loop 1000
change_box all x scale 0.95 y scale 0.95 z scale 0.95 remap
Changing box ...
  orthogonal box = (58.500000 30.000000 30.000000) to (1141.5000 1170.0000 1170.0000)
  orthogonal box = (58.500000 58.500000 30.000000) to (1141.5000 1141.5000 1170.0000)
  orthogonal box = (58.500000 58.500000 58.500000) to (1141.5000 1141.5000 1141.5000)
run 8000
Per MPI rank memory allocation (min/avg/max) = 11.62 | 11.65 | 11.68 Mbytes
Step PotEng Temp Press KinEng Lx Ly Lz Pzz S/CPU Density 
 1014001     3323.396    386.88397     2.006603    7158.0839         1083         1083         1083     1.963408            0 0.0009106405 
 1022001    1180.1739     393.4335 0.0036189805    7279.2625         1083         1083         1083 -0.013216706     1599.108 0.0009106405 
Loop time of 5.00289 on 6 procs for 8000 steps with 6208 atoms

Performance: 1381.602 ns/day, 0.017 hours/ns, 1599.077 timesteps/s
99.7% CPU use with 6 MPI tasks x no OpenMP threads

MPI task timing breakdown:
Section |  min time  |  avg time  |  max time  |%varavg| %total
---------------------------------------------------------------
Pair    | 1.5946     | 2.2591     | 3.5026     |  50.8 | 45.16
Bond    | 0.063748   | 0.086763   | 0.12282    |   7.9 |  1.73
Neigh   | 0.48733    | 0.49151    | 0.49599    |   0.5 |  9.82
Comm    | 0.24881    | 1.6755     | 2.4465     |  67.9 | 33.49
Output  | 4.1962e-05 | 7.6016e-05 | 0.00016308 |   0.0 |  0.00
Modify  | 0.32157    | 0.43756    | 0.62084    |  17.5 |  8.75
Other   |            | 0.05238    |            |       |  1.05

Nlocal:        1034.67 ave        1428 max         734 min
Histogram: 1 1 1 1 0 0 0 0 0 2
Nghost:        652.333 ave         986 max         325 min
Histogram: 1 1 0 1 1 0 0 0 0 2
Neighs:        14535.5 ave       22486 max        9786 min
Histogram: 2 1 1 0 0 0 0 1 0 1

Total # of neighbors = 87213
Ave neighs/atom = 14.048486
Ave special neighs/atom = 1.9793814
Neighbor list builds = 364
Dangerous builds = 0

if "${myDensity} > 1.0" then "jump SELF break"

next a
jump SELF loop
variable a loop 1000
change_box all x scale 0.95 y scale 0.95 z scale 0.95 remap
Changing box ...
  orthogonal box = (85.575000 58.500000 58.500000) to (1114.4250 1141.5000 1141.5000)
  orthogonal box = (85.575000 85.575000 58.500000) to (1114.4250 1114.4250 1141.5000)
  orthogonal box = (85.575000 85.575000 85.575000) to (1114.4250 1114.4250 1114.4250)
run 8000
Per MPI rank memory allocation (min/avg/max) = 11.62 | 11.65 | 11.68 Mbytes
Step PotEng Temp Press KinEng Lx Ly Lz Pzz S/CPU Density 
 1022001    3285.3359     393.4335    2.3908463    7279.2625      1028.85      1028.85      1028.85     2.396765            0 0.0010621263 
 1030001    1085.7589    388.10703  0.028200694    7180.7128      1028.85      1028.85      1028.85  0.024152873    1685.9668 0.0010621263 
Loop time of 4.74514 on 6 procs for 8000 steps with 6208 atoms

Performance: 1456.647 ns/day, 0.016 hours/ns, 1685.934 timesteps/s
99.8% CPU use with 6 MPI tasks x no OpenMP threads

MPI task timing breakdown:
Section |  min time  |  avg time  |  max time  |%varavg| %total
---------------------------------------------------------------
Pair    | 1.4921     | 2.3582     | 3.2714     |  44.6 | 49.70
Bond    | 0.06077    | 0.086832   | 0.11706    |   7.1 |  1.83
Neigh   | 0.45838    | 0.46156    | 0.46505    |   0.4 |  9.73
Comm    | 0.31605    | 1.3549     | 2.3456     |  67.7 | 28.55
Output  | 4.1008e-05 | 7.3155e-05 | 0.00014997 |   0.0 |  0.00
Modify  | 0.30613    | 0.43862    | 0.58884    |  15.8 |  9.24
Other   |            | 0.04491    |            |       |  0.95

Nlocal:        1034.67 ave        1345 max         734 min
Histogram: 1 1 0 1 0 1 0 0 0 2
Nghost:        650.000 ave         875 max         385 min
Histogram: 1 1 0 0 0 2 0 0 0 2
Neighs:        14966.8 ave       20756 max        9945 min
Histogram: 1 1 1 0 1 0 0 0 0 2

Total # of neighbors = 89801
Ave neighs/atom = 14.465367
Ave special neighs/atom = 1.9793814
Neighbor list builds = 366
Dangerous builds = 0

if "${myDensity} > 1.0" then "jump SELF break"

next a
jump SELF loop
variable a loop 1000
change_box all x scale 0.95 y scale 0.95 z scale 0.95 remap
Changing box ...
  orthogonal box = (111.29625 85.575000 85.575000) to (1088.7037 1114.4250 1114.4250)
  orthogonal box = (111.29625 111.29625 85.575000) to (1088.7037 1088.7037 1114.4250)
  orthogonal box = (111.29625 111.29625 111.29625) to (1088.7037 1088.7037 1088.7037)
run 8000
Per MPI rank memory allocation (min/avg/max) = 11.62 | 11.65 | 11.68 Mbytes
Step PotEng Temp Press KinEng Lx Ly Lz Pzz S/CPU Density 
 1030001    3224.3684    388.10703    2.7470141    7180.7128     977.4075     977.4075     977.4075    2.7550949            0 0.0012388118 
 1038001    1112.0489    396.97235 -0.018175386     7344.738     977.4075     977.4075     977.4075 -0.046513524    1736.7602 0.0012388118 
Loop time of 4.60632 on 6 procs for 8000 steps with 6208 atoms

Performance: 1500.548 ns/day, 0.016 hours/ns, 1736.746 timesteps/s
99.7% CPU use with 6 MPI tasks x no OpenMP threads

MPI task timing breakdown:
Section |  min time  |  avg time  |  max time  |%varavg| %total
---------------------------------------------------------------
Pair    | 1.7137     | 2.3048     | 3.1931     |  41.6 | 50.03
Bond    | 0.065162   | 0.086731   | 0.11514    |   7.2 |  1.88
Neigh   | 0.42796    | 0.43139    | 0.43462    |   0.4 |  9.37
Comm    | 0.26798    | 1.3004     | 1.9878     |  64.4 | 28.23
Output  | 4.2915e-05 | 6.9658e-05 | 0.00010991 |   0.0 |  0.00
Modify  | 0.32874    | 0.4381     | 0.58115    |  15.7 |  9.51
Other   |            | 0.04482    |            |       |  0.97

Nlocal:        1034.67 ave        1479 max         751 min
Histogram: 3 0 0 0 1 0 0 1 0 1
Nghost:        698.167 ave         961 max         499 min
Histogram: 1 2 0 0 1 0 0 0 1 1
Neighs:        14278.7 ave       20456 max        9282 min
Histogram: 1 2 0 0 0 1 0 0 1 1

Total # of neighbors = 85672
Ave neighs/atom = 13.800258
Ave special neighs/atom = 1.9793814
Neighbor list builds = 360
Dangerous builds = 0

if "${myDensity} > 1.0" then "jump SELF break"

next a
jump SELF loop
variable a loop 1000
change_box all x scale 0.95 y scale 0.95 z scale 0.95 remap
Changing box ...
  orthogonal box = (135.73144 111.29625 111.29625) to (1064.2686 1088.7037 1088.7037)
  orthogonal box = (135.73144 135.73144 111.29625) to (1064.2686 1064.2686 1088.7037)
  orthogonal box = (135.73144 135.73144 135.73144) to (1064.2686 1064.2686 1064.2686)
run 8000
Per MPI rank memory allocation (min/avg/max) = 11.62 | 11.65 | 11.68 Mbytes
Step PotEng Temp Press KinEng Lx Ly Lz Pzz S/CPU Density 
 1038001    3090.4874    396.97235    3.0970865     7344.738    928.53712    928.53712    928.53712    3.0925455            0 0.0014448891 
 1046001    1089.9801    387.45556  0.029528124    7168.6594    928.53712    928.53712    928.53712  -0.02675322    1699.7867 0.0014448891 
Loop time of 4.70657 on 6 procs for 8000 steps with 6208 atoms

Performance: 1468.586 ns/day, 0.016 hours/ns, 1699.752 timesteps/s
99.7% CPU use with 6 MPI tasks x no OpenMP threads

MPI task timing breakdown:
Section |  min time  |  avg time  |  max time  |%varavg| %total
---------------------------------------------------------------
Pair    | 1.7542     | 2.3529     | 3.2773     |  39.0 | 49.99
Bond    | 0.064338   | 0.086706   | 0.12038    |   7.2 |  1.84
Neigh   | 0.42509    | 0.42853    | 0.43176    |   0.4 |  9.10
Comm    | 0.2561     | 1.3515     | 2.0411     |  60.4 | 28.71
Output  | 4.5061e-05 | 7.7128e-05 | 0.00016212 |   0.0 |  0.00
Modify  | 0.33156    | 0.43752    | 0.60802    |  16.0 |  9.30
Other   |            | 0.04937    |            |       |  1.05

Nlocal:        1034.67 ave        1410 max         768 min
Histogram: 2 1 0 0 1 0 0 0 1 1
Nghost:        726.833 ave         915 max         595 min
Histogram: 2 0 0 1 1 0 1 0 0 1
Neighs:        14849.3 ave       19965 max       11364 min
Histogram: 3 0 0 0 0 0 1 1 0 1

Total # of neighbors = 89096
Ave neighs/atom = 14.351804
Ave special neighs/atom = 1.9793814
Neighbor list builds = 359
Dangerous builds = 0

if "${myDensity} > 1.0" then "jump SELF break"

next a
jump SELF loop
variable a loop 1000
change_box all x scale 0.95 y scale 0.95 z scale 0.95 remap
Changing box ...
  orthogonal box = (158.94487 135.73144 135.73144) to (1041.0551 1064.2686 1064.2686)
  orthogonal box = (158.94487 158.94487 135.73144) to (1041.0551 1041.0551 1064.2686)
  orthogonal box = (158.94487 158.94487 158.94487) to (1041.0551 1041.0551 1041.0551)
run 8000
Per MPI rank memory allocation (min/avg/max) = 11.62 | 11.65 | 11.68 Mbytes
Step PotEng Temp Press KinEng Lx Ly Lz Pzz S/CPU Density 
 1046001    3188.0017    387.45556    3.6880966    7168.6594    882.11027    882.11027    882.11027    3.6472653            0 0.0016852475 
 1054001     1147.448    396.34303  0.045818674    7333.0944    882.11027    882.11027    882.11027  0.026785306     1695.706 0.0016852475 
Loop time of 4.7179 on 6 procs for 8000 steps with 6208 atoms

Performance: 1465.059 ns/day, 0.016 hours/ns, 1695.670 timesteps/s
99.6% CPU use with 6 MPI tasks x no OpenMP threads

MPI task timing breakdown:
Section |  min time  |  avg time  |  max time  |%varavg| %total
---------------------------------------------------------------
Pair    | 1.808      | 2.3888     | 3.2562     |  36.7 | 50.63
Bond    | 0.066534   | 0.086715   | 0.11326    |   6.4 |  1.84
Neigh   | 0.40632    | 0.40932    | 0.41169    |   0.3 |  8.68
Comm    | 0.35344    | 1.3466     | 2.0191     |  56.5 | 28.54
Output  | 4.1008e-05 | 7.6532e-05 | 0.00016499 |   0.0 |  0.00
Modify  | 0.33666    | 0.44263    | 0.56794    |  13.5 |  9.38
Other   |            | 0.04379    |            |       |  0.93

Nlocal:        1034.67 ave        1404 max         782 min
Histogram: 2 1 0 0 1 0 0 1 0 1
Nghost:        801.167 ave         919 max         638 min
Histogram: 1 0 0 0 2 0 1 0 0 2
Neighs:        14821.2 ave       22249 max       11043 min
Histogram: 3 0 0 0 1 1 0 0 0 1

Total # of neighbors = 88927
Ave neighs/atom = 14.324581
Ave special neighs/atom = 1.9793814
Neighbor list builds = 355
Dangerous builds = 0

if "${myDensity} > 1.0" then "jump SELF break"

next a
jump SELF loop
variable a loop 1000
change_box all x scale 0.95 y scale 0.95 z scale 0.95 remap
Changing box ...
  orthogonal box = (180.99762 158.94487 158.94487) to (1019.0024 1041.0551 1041.0551)
  orthogonal box = (180.99762 180.99762 158.94487) to (1019.0024 1019.0024 1041.0551)
  orthogonal box = (180.99762 180.99762 180.99762) to (1019.0024 1019.0024 1019.0024)
run 8000
Per MPI rank memory allocation (min/avg/max) = 11.63 | 11.65 | 11.68 Mbytes
Step PotEng Temp Press KinEng Lx Ly Lz Pzz S/CPU Density 
 1054001    3266.6858    396.34303    4.3503417    7333.0944    838.00476    838.00476    838.00476    4.3358057            0 0.0019655898 
 1062001     1089.807    386.34911 0.0048891426    7148.1879    838.00476    838.00476    838.00476 -0.073301857    1697.9601 0.0019655898 
Loop time of 4.71165 on 6 procs for 8000 steps with 6208 atoms

Performance: 1467.002 ns/day, 0.016 hours/ns, 1697.920 timesteps/s
99.7% CPU use with 6 MPI tasks x no OpenMP threads

MPI task timing breakdown:
Section |  min time  |  avg time  |  max time  |%varavg| %total
---------------------------------------------------------------
Pair    | 1.7145     | 2.3355     | 3.3218     |  36.9 | 49.57
Bond    | 0.065486   | 0.08666    | 0.11618    |   6.5 |  1.84
Neigh   | 0.4058     | 0.40927    | 0.41218    |   0.3 |  8.69
Comm    | 0.26747    | 1.3979     | 2.1156     |  55.4 | 29.67
Output  | 4.4107e-05 | 7.6413e-05 | 0.000175   |   0.0 |  0.00
Modify  | 0.33852    | 0.43795    | 0.58126    |  14.2 |  9.30
Other   |            | 0.04428    |            |       |  0.94

Nlocal:        1034.67 ave        1330 max         739 min
Histogram: 1 0 1 1 1 0 0 0 0 2
Nghost:        810.667 ave        1068 max         620 min
Histogram: 1 1 0 1 0 2 0 0 0 1
Neighs:        14238.0 ave       19541 max       10065 min
Histogram: 1 1 1 1 0 0 0 0 1 1

Total # of neighbors = 85428
Ave neighs/atom = 13.760954
Ave special neighs/atom = 1.9793814
Neighbor list builds = 355
Dangerous builds = 0

if "${myDensity} > 1.0" then "jump SELF break"

next a
jump SELF loop
variable a loop 1000
change_box all x scale 0.95 y scale 0.95 z scale 0.95 remap
Changing box ...
  orthogonal box = (201.94774 180.99762 180.99762) to (998.05226 1019.0024 1019.0024)
  orthogonal box = (201.94774 201.94774 180.99762) to (998.05226 998.05226 1019.0024)
  orthogonal box = (201.94774 201.94774 201.94774) to (998.05226 998.05226 998.05226)
run 8000
Per MPI rank memory allocation (min/avg/max) = 11.63 | 11.65 | 11.68 Mbytes
Step PotEng Temp Press KinEng Lx Ly Lz Pzz S/CPU Density 
 1062001    3140.4634    386.34911    4.9730189    7148.1879    796.10452    796.10452    796.10452    4.8918694            0 0.0022925672 
 1070001    1179.3677    396.92128 -0.033205156    7343.7931    796.10452    796.10452    796.10452 -0.044650155    1756.7402 0.0022925672 
Loop time of 4.55392 on 6 procs for 8000 steps with 6208 atoms

Performance: 1517.813 ns/day, 0.016 hours/ns, 1756.729 timesteps/s
99.7% CPU use with 6 MPI tasks x no OpenMP threads

MPI task timing breakdown:
Section |  min time  |  avg time  |  max time  |%varavg| %total
---------------------------------------------------------------
Pair    | 1.6969     | 2.336      | 3.1509     |  36.5 | 51.30
Bond    | 0.063995   | 0.086486   | 0.11213    |   6.4 |  1.90
Neigh   | 0.38974    | 0.39376    | 0.39702    |   0.4 |  8.65
Comm    | 0.31528    | 1.2589     | 2.0002     |  57.9 | 27.64
Output  | 5.0068e-05 | 7.0175e-05 | 9.9897e-05 |   0.0 |  0.00
Modify  | 0.33148    | 0.43663    | 0.56526    |  13.9 |  9.59
Other   |            | 0.04204    |            |       |  0.92

Nlocal:        1034.67 ave        1367 max         781 min
Histogram: 2 0 2 0 0 0 0 0 0 2
Nghost:        909.167 ave        1221 max         697 min
Histogram: 1 0 1 3 0 0 0 0 0 1
Neighs:        14439.3 ave       20883 max       10925 min
Histogram: 2 1 1 0 0 0 1 0 0 1

Total # of neighbors = 86636
Ave neighs/atom = 13.955541
Ave special neighs/atom = 1.9793814
Neighbor list builds = 367
Dangerous builds = 0

if "${myDensity} > 1.0" then "jump SELF break"

next a
jump SELF loop
variable a loop 1000
change_box all x scale 0.95 y scale 0.95 z scale 0.95 remap
Changing box ...
  orthogonal box = (221.85035 201.94774 201.94774) to (978.14965 998.05226 998.05226)
  orthogonal box = (221.85035 221.85035 201.94774) to (978.14965 978.14965 998.05226)
  orthogonal box = (221.85035 221.85035 221.85035) to (978.14965 978.14965 978.14965)
run 8000
Per MPI rank memory allocation (min/avg/max) = 11.63 | 11.65 | 11.68 Mbytes
Step PotEng Temp Press KinEng Lx Ly Lz Pzz S/CPU Density 
 1070001     3159.369    396.92128    5.7348104    7343.7931    756.29929    756.29929    756.29929    5.6354932            0 0.0026739375 
 1078001    1164.8824     392.1741   0.14338041    7255.9613    756.29929    756.29929    756.29929   0.08934015    1670.5765 0.0026739375 
Loop time of 4.78886 on 6 procs for 8000 steps with 6208 atoms

Performance: 1443.350 ns/day, 0.017 hours/ns, 1670.543 timesteps/s
99.7% CPU use with 6 MPI tasks x no OpenMP threads

MPI task timing breakdown:
Section |  min time  |  avg time  |  max time  |%varavg| %total
---------------------------------------------------------------
Pair    | 1.7251     | 2.353      | 3.3673     |  40.3 | 49.14
Bond    | 0.066012   | 0.086547   | 0.11474    |   6.8 |  1.81
Neigh   | 0.39243    | 0.39739    | 0.40129    |   0.5 |  8.30
Comm    | 0.31484    | 1.4677     | 2.177      |  58.8 | 30.65
Output  | 4.2915e-05 | 7.4546e-05 | 0.00015712 |   0.0 |  0.00
Modify  | 0.33341    | 0.43682    | 0.57661    |  14.8 |  9.12
Other   |            | 0.04733    |            |       |  0.99

Nlocal:        1034.67 ave        1365 max         794 min
Histogram: 2 0 2 0 0 0 0 0 0 2
Nghost:        992.833 ave        1334 max         721 min
Histogram: 1 0 1 0 3 0 0 0 0 1
Neighs:        14667.7 ave       21210 max        9662 min
Histogram: 2 0 0 2 0 0 0 0 0 2

Total # of neighbors = 88006
Ave neighs/atom = 14.176224
Ave special neighs/atom = 1.9793814
Neighbor list builds = 363
Dangerous builds = 0

if "${myDensity} > 1.0" then "jump SELF break"

next a
jump SELF loop
variable a loop 1000
change_box all x scale 0.95 y scale 0.95 z scale 0.95 remap
Changing box ...
  orthogonal box = (240.75784 221.85035 221.85035) to (959.24216 978.14965 978.14965)
  orthogonal box = (240.75784 240.75784 221.85035) to (959.24216 959.24216 978.14965)
  orthogonal box = (240.75784 240.75784 240.75784) to (959.24216 959.24216 959.24216)
run 8000
Per MPI rank memory allocation (min/avg/max) = 11.63 | 11.65 | 11.68 Mbytes
Step PotEng Temp Press KinEng Lx Ly Lz Pzz S/CPU Density 
 1078001    3341.6341     392.1741    6.9363968    7255.9613    718.48433    718.48433    718.48433    6.9186317            0 0.0031187491 
 1086001    1234.5679    395.08962  0.059432933    7309.9039    718.48433    718.48433    718.48433   0.15522129    1666.2924 0.0031187491 
Loop time of 4.80118 on 6 procs for 8000 steps with 6208 atoms

Performance: 1439.646 ns/day, 0.017 hours/ns, 1666.257 timesteps/s
99.7% CPU use with 6 MPI tasks x no OpenMP threads

MPI task timing breakdown:
Section |  min time  |  avg time  |  max time  |%varavg| %total
---------------------------------------------------------------
Pair    | 1.652      | 2.3483     | 3.3874     |  44.3 | 48.91
Bond    | 0.064918   | 0.086687   | 0.11775    |   6.5 |  1.81
Neigh   | 0.39751    | 0.40239    | 0.4061     |   0.4 |  8.38
Comm    | 0.2853     | 1.4792     | 2.2736     |  63.4 | 30.81
Output  | 4.0054e-05 | 7.836e-05  | 0.00016999 |   0.0 |  0.00
Modify  | 0.33598    | 0.43742    | 0.59132    |  14.2 |  9.11
Other   |            | 0.04714    |            |       |  0.98

Nlocal:        1034.67 ave        1463 max         756 min
Histogram: 1 2 0 1 0 0 1 0 0 1
Nghost:        980.167 ave        1319 max         742 min
Histogram: 1 0 1 1 1 1 0 0 0 1
Neighs:        14877.0 ave       22090 max       10359 min
Histogram: 2 1 1 0 0 0 0 0 1 1

Total # of neighbors = 89262
Ave neighs/atom = 14.378544
Ave special neighs/atom = 1.9793814
Neighbor list builds = 363
Dangerous builds = 0

if "${myDensity} > 1.0" then "jump SELF break"

next a
jump SELF loop
variable a loop 1000
change_box all x scale 0.95 y scale 0.95 z scale 0.95 remap
Changing box ...
  orthogonal box = (258.71994 240.75784 240.75784) to (941.28006 959.24216 959.24216)
  orthogonal box = (258.71994 258.71994 240.75784) to (941.28006 941.28006 959.24216)
  orthogonal box = (258.71994 258.71994 258.71994) to (941.28006 941.28006 941.28006)
run 8000
Per MPI rank memory allocation (min/avg/max) = 11.63 | 11.65 | 11.68 Mbytes
Step PotEng Temp Press KinEng Lx Ly Lz Pzz S/CPU Density 
 1086001    3323.4969    395.08962    7.9828595    7309.9039    682.56011    682.56011    682.56011    8.1901175            0 0.0036375554 
 1094001    1132.7617    387.27713  0.024014098    7165.3581    682.56011    682.56011    682.56011 -0.050607131    1620.0193 0.0036375554 
Loop time of 4.93824 on 6 procs for 8000 steps with 6208 atoms

Performance: 1399.689 ns/day, 0.017 hours/ns, 1620.010 timesteps/s
99.7% CPU use with 6 MPI tasks x no OpenMP threads

MPI task timing breakdown:
Section |  min time  |  avg time  |  max time  |%varavg| %total
---------------------------------------------------------------
Pair    | 1.7199     | 2.4194     | 3.5008     |  40.7 | 48.99
Bond    | 0.061938   | 0.086498   | 0.12037    |   6.4 |  1.75
Neigh   | 0.40163    | 0.40588    | 0.40916    |   0.4 |  8.22
Comm    | 0.29073    | 1.5387     | 2.3503     |  58.3 | 31.16
Output  | 3.8862e-05 | 5.7578e-05 | 9.1076e-05 |   0.0 |  0.00
Modify  | 0.32208    | 0.4372     | 0.60372    |  14.0 |  8.85
Other   |            | 0.05041    |            |       |  1.02

Nlocal:        1034.67 ave        1368 max         687 min
Histogram: 1 0 0 1 2 0 0 0 1 1
Nghost:        977.500 ave        1278 max         839 min
Histogram: 3 1 0 0 0 1 0 0 0 1
Neighs:        15366.5 ave       21206 max       11013 min
Histogram: 1 1 1 0 1 0 0 1 0 1

Total # of neighbors = 92199
Ave neighs/atom = 14.851643
Ave special neighs/atom = 1.9793814
Neighbor list builds = 361
Dangerous builds = 0

if "${myDensity} > 1.0" then "jump SELF break"

next a
jump SELF loop
variable a loop 1000
change_box all x scale 0.95 y scale 0.95 z scale 0.95 remap
Changing box ...
  orthogonal box = (275.78395 258.71994 258.71994) to (924.21605 941.28006 941.28006)
  orthogonal box = (275.78395 275.78395 258.71994) to (924.21605 924.21605 941.28006)
  orthogonal box = (275.78395 275.78395 275.78395) to (924.21605 924.21605 924.21605)
run 8000
Per MPI rank memory allocation (min/avg/max) = 11.63 | 11.65 | 11.68 Mbytes
Step PotEng Temp Press KinEng Lx Ly Lz Pzz S/CPU Density 
 1094001    3197.8578    387.27713    9.2362384    7165.3581    648.43211    648.43211    648.43211    9.0707213            0 0.0042426656 
 1102001    1055.2654    388.37569 -0.046551493    7185.6835    648.43211    648.43211    648.43211  -0.14029263    1680.6588 0.0042426656 
Loop time of 4.76013 on 6 procs for 8000 steps with 6208 atoms

Performance: 1452.061 ns/day, 0.017 hours/ns, 1680.626 timesteps/s
99.7% CPU use with 6 MPI tasks x no OpenMP threads

MPI task timing breakdown:
Section |  min time  |  avg time  |  max time  |%varavg| %total
---------------------------------------------------------------
Pair    | 1.7163     | 2.4861     | 3.3655     |  33.4 | 52.23
Bond    | 0.061843   | 0.086666   | 0.11357    |   5.4 |  1.82
Neigh   | 0.38943    | 0.39305    | 0.39599    |   0.3 |  8.26
Comm    | 0.30085    | 1.3115     | 2.1942     |  52.6 | 27.55
Output  | 0.0023267  | 0.0025117  | 0.0027769  |   0.3 |  0.05
Modify  | 0.32109    | 0.43715    | 0.56737    |  11.6 |  9.18
Other   |            | 0.04317    |            |       |  0.91

Nlocal:        1034.67 ave        1346 max         761 min
Histogram: 1 0 0 2 0 2 0 0 0 1
Nghost:        951.333 ave        1050 max         855 min
Histogram: 1 2 0 0 0 0 0 1 0 2
Neighs:        15641.2 ave       22245 max       11413 min
Histogram: 1 0 2 1 1 0 0 0 0 1

Total # of neighbors = 93847
Ave neighs/atom = 15.117107
Ave special neighs/atom = 1.9793814
Neighbor list builds = 360
Dangerous builds = 0

if "${myDensity} > 1.0" then "jump SELF break"

next a
jump SELF loop
variable a loop 1000
change_box all x scale 0.95 y scale 0.95 z scale 0.95 remap
Changing box ...
  orthogonal box = (291.99475 275.78395 275.78395) to (908.00525 924.21605 924.21605)
  orthogonal box = (291.99475 291.99475 275.78395) to (908.00525 908.00525 924.21605)
  orthogonal box = (291.99475 291.99475 291.99475) to (908.00525 908.00525 908.00525)
run 8000
Per MPI rank memory allocation (min/avg/max) = 11.78 | 11.81 | 11.86 Mbytes
Step PotEng Temp Press KinEng Lx Ly Lz Pzz S/CPU Density 
 1102001    3082.4946    388.37569    10.727814    7185.6835     616.0105     616.0105     616.0105    10.366296            0 0.0049484363 
 1110001    1070.9263    388.65485  0.039689501    7190.8486     616.0105     616.0105     616.0105  -0.01527173    1784.9441 0.0049484363 
Loop time of 4.48203 on 6 procs for 8000 steps with 6208 atoms

Performance: 1542.159 ns/day, 0.016 hours/ns, 1784.907 timesteps/s
99.7% CPU use with 6 MPI tasks x no OpenMP threads

MPI task timing breakdown:
Section |  min time  |  avg time  |  max time  |%varavg| %total
---------------------------------------------------------------
Pair    | 1.9512     | 2.501      | 3.2007     |  26.5 | 55.80
Bond    | 0.067443   | 0.086674   | 0.10541    |   4.2 |  1.93
Neigh   | 0.35718    | 0.35933    | 0.36143    |   0.3 |  8.02
Comm    | 0.27317    | 1.0632     | 1.6625     |  46.0 | 23.72
Output  | 3.7193e-05 | 6.7949e-05 | 0.0001421  |   0.0 |  0.00
Modify  | 0.34931    | 0.43781    | 0.52808    |   9.0 |  9.77
Other   |            | 0.03395    |            |       |  0.76

Nlocal:        1034.67 ave        1230 max         850 min
Histogram: 2 0 0 0 0 1 1 1 0 1
Nghost:        894.500 ave        1071 max         775 min
Histogram: 1 1 1 0 1 0 1 0 0 1
Neighs:        15781.2 ave       19324 max       11496 min
Histogram: 1 1 0 0 0 0 2 1 0 1

Total # of neighbors = 94687
Ave neighs/atom = 15.252416
Ave special neighs/atom = 1.9793814
Neighbor list builds = 360
Dangerous builds = 0

if "${myDensity} > 1.0" then "jump SELF break"

next a
jump SELF loop
variable a loop 1000
change_box all x scale 0.95 y scale 0.95 z scale 0.95 remap
Changing box ...
  orthogonal box = (307.39501 291.99475 291.99475) to (892.60499 908.00525 908.00525)
  orthogonal box = (307.39501 307.39501 291.99475) to (892.60499 892.60499 908.00525)
  orthogonal box = (307.39501 307.39501 307.39501) to (892.60499 892.60499 892.60499)
run 8000
Per MPI rank memory allocation (min/avg/max) = 11.78 | 11.81 | 11.86 Mbytes
Step PotEng Temp Press KinEng Lx Ly Lz Pzz S/CPU Density 
 1110001    3160.5841    388.65485    12.690753    7190.8486    585.20997    585.20997    585.20997    12.597343            0 0.0057716126 
 1118001    1053.7086    393.57101 0.00080052434    7281.8067    585.20997    585.20997    585.20997   0.10985876    1895.5576 0.0057716126 
Loop time of 4.2205 on 6 procs for 8000 steps with 6208 atoms

Performance: 1637.719 ns/day, 0.015 hours/ns, 1895.508 timesteps/s
99.7% CPU use with 6 MPI tasks x no OpenMP threads

MPI task timing breakdown:
Section |  min time  |  avg time  |  max time  |%varavg| %total
---------------------------------------------------------------
Pair    | 1.9959     | 2.5064     | 2.9714     |  20.2 | 59.39
Bond    | 0.071395   | 0.086701   | 0.1004     |   3.9 |  2.05
Neigh   | 0.33034    | 0.33286    | 0.3353     |   0.3 |  7.89
Comm    | 0.29437    | 0.82504    | 1.4073     |  40.6 | 19.55
Output  | 3.7909e-05 | 6.2823e-05 | 0.00015187 |   0.0 |  0.00
Modify  | 0.36027    | 0.43908    | 0.50448    |   8.2 | 10.40
Other   |            | 0.03035    |            |       |  0.72

Nlocal:        1034.67 ave        1190 max         866 min
Histogram: 1 1 1 0 0 0 0 0 1 2
Nghost:        918.500 ave        1058 max         781 min
Histogram: 1 1 1 0 0 0 0 1 1 1
Neighs:        15284.8 ave       17167 max       12981 min
Histogram: 1 0 0 1 0 2 0 1 0 1

Total # of neighbors = 91709
Ave neighs/atom = 14.772713
Ave special neighs/atom = 1.9793814
Neighbor list builds = 359
Dangerous builds = 0

if "${myDensity} > 1.0" then "jump SELF break"

next a
jump SELF loop
variable a loop 1000
change_box all x scale 0.95 y scale 0.95 z scale 0.95 remap
Changing box ...
  orthogonal box = (322.02526 307.39501 307.39501) to (877.97474 892.60499 892.60499)
  orthogonal box = (322.02526 322.02526 307.39501) to (877.97474 877.97474 892.60499)
  orthogonal box = (322.02526 322.02526 322.02526) to (877.97474 877.97474 877.97474)
run 8000
Per MPI rank memory allocation (min/avg/max) = 11.78 | 11.81 | 11.86 Mbytes
Step PotEng Temp Press KinEng Lx Ly Lz Pzz S/CPU Density 
 1118001    3087.1215    393.57101    14.593835    7281.8067    555.94948    555.94948    555.94948    14.661841            0 0.0067317249 
 1126001    965.83181    388.01851   0.13410996    7179.0749    555.94948    555.94948    555.94948 -0.00014357539    1947.8302 0.0067317249 
Loop time of 4.10716 on 6 procs for 8000 steps with 6208 atoms

Performance: 1682.914 ns/day, 0.014 hours/ns, 1947.817 timesteps/s
99.7% CPU use with 6 MPI tasks x no OpenMP threads

MPI task timing breakdown:
Section |  min time  |  avg time  |  max time  |%varavg| %total
---------------------------------------------------------------
Pair    | 2.0824     | 2.4447     | 2.8713     |  18.6 | 59.52
Bond    | 0.074192   | 0.086919   | 0.10168    |   3.5 |  2.12
Neigh   | 0.32837    | 0.33057    | 0.33284    |   0.2 |  8.05
Comm    | 0.30972    | 0.77664    | 1.192      |  38.1 | 18.91
Output  | 3.6955e-05 | 4.9671e-05 | 7.7009e-05 |   0.0 |  0.00
Modify  | 0.38193    | 0.43934    | 0.51002    |   7.3 | 10.70
Other   |            | 0.02898    |            |       |  0.71

Nlocal:        1034.67 ave        1203 max         876 min
Histogram: 1 1 0 1 0 0 1 1 0 1
Nghost:        995.333 ave        1172 max         847 min
Histogram: 1 0 2 1 0 0 0 0 1 1
Neighs:        15933.2 ave       18167 max       13565 min
Histogram: 1 1 0 0 1 0 1 0 1 1

Total # of neighbors = 95599
Ave neighs/atom = 15.399323
Ave special neighs/atom = 1.9793814
Neighbor list builds = 365
Dangerous builds = 0

if "${myDensity} > 1.0" then "jump SELF break"

next a
jump SELF loop
variable a loop 1000
change_box all x scale 0.95 y scale 0.95 z scale 0.95 remap
Changing box ...
  orthogonal box = (335.92400 322.02526 322.02526) to (864.07600 877.97474 877.97474)
  orthogonal box = (335.92400 335.92400 322.02526) to (864.07600 864.07600 877.97474)
  orthogonal box = (335.92400 335.92400 335.92400) to (864.07600 864.07600 864.07600)
run 8000
Per MPI rank memory allocation (min/avg/max) = 11.78 | 11.81 | 11.86 Mbytes
Step PotEng Temp Press KinEng Lx Ly Lz Pzz S/CPU Density 
 1126001    3092.5181    388.01851    17.413397    7179.0749      528.152      528.152      528.152    17.441781            0 0.0078515525 
 1134001     1145.653    391.99124 -0.016492617     7252.578      528.152      528.152      528.152  -0.16154984     1914.608 0.0078515525 
Loop time of 4.17849 on 6 procs for 8000 steps with 6208 atoms

Performance: 1654.186 ns/day, 0.015 hours/ns, 1914.567 timesteps/s
99.7% CPU use with 6 MPI tasks x no OpenMP threads

MPI task timing breakdown:
Section |  min time  |  avg time  |  max time  |%varavg| %total
---------------------------------------------------------------
Pair    | 2.1257     | 2.4891     | 2.8831     |  18.2 | 59.57
Bond    | 0.073127   | 0.086778   | 0.102      |   3.7 |  2.08
Neigh   | 0.32543    | 0.32775    | 0.32959    |   0.2 |  7.84
Comm    | 0.33988    | 0.80346    | 1.2219     |  37.5 | 19.23
Output  | 4.9829e-05 | 7.2598e-05 | 0.00014806 |   0.0 |  0.00
Modify  | 0.38106    | 0.43918    | 0.51277    |   7.8 | 10.51
Other   |            | 0.03212    |            |       |  0.77

Nlocal:        1034.67 ave        1187 max         864 min
Histogram: 1 0 1 1 0 0 1 0 1 1
Nghost:        1055.67 ave        1210 max         814 min
Histogram: 1 0 0 1 0 0 1 1 1 1
Neighs:        15695.5 ave       17626 max       13235 min
Histogram: 1 0 1 1 0 0 0 0 1 2

Total # of neighbors = 94173
Ave neighs/atom = 15.169620
Ave special neighs/atom = 1.9793814
Neighbor list builds = 359
Dangerous builds = 0

if "${myDensity} > 1.0" then "jump SELF break"

next a
jump SELF loop
variable a loop 1000
change_box all x scale 0.95 y scale 0.95 z scale 0.95 remap
Changing box ...
  orthogonal box = (349.12780 335.92400 335.92400) to (850.87220 864.07600 864.07600)
  orthogonal box = (349.12780 349.12780 335.92400) to (850.87220 850.87220 864.07600)
  orthogonal box = (349.12780 349.12780 349.12780) to (850.87220 850.87220 850.87220)
run 8000
Per MPI rank memory allocation (min/avg/max) = 11.78 | 11.81 | 11.86 Mbytes
Step PotEng Temp Press KinEng Lx Ly Lz Pzz S/CPU Density 
 1134001    3185.5396    391.99124    19.905374     7252.578     501.7444     501.7444     501.7444    19.569174            0 0.0091576644 
 1142001    1140.6443    389.63666  0.076246129    7209.0139     501.7444     501.7444     501.7444  -0.10121794    1834.4976 0.0091576644 
Loop time of 4.36096 on 6 procs for 8000 steps with 6208 atoms

Performance: 1584.972 ns/day, 0.015 hours/ns, 1834.458 timesteps/s
99.7% CPU use with 6 MPI tasks x no OpenMP threads

MPI task timing breakdown:
Section |  min time  |  avg time  |  max time  |%varavg| %total
---------------------------------------------------------------
Pair    | 2.0709     | 2.5172     | 3.0039     |  19.7 | 57.72
Bond    | 0.070901   | 0.087017   | 0.10666    |   3.9 |  2.00
Neigh   | 0.33672    | 0.33958    | 0.34198    |   0.3 |  7.79
Comm    | 0.36545    | 0.93822    | 1.4525     |  37.4 | 21.51
Output  | 7.391e-05  | 0.0001059  | 0.00019383 |   0.0 |  0.00
Modify  | 0.3676     | 0.43912    | 0.53197    |   8.1 | 10.07
Other   |            | 0.03974    |            |       |  0.91

Nlocal:        1034.67 ave        1257 max         794 min
Histogram: 1 0 0 1 1 0 2 0 0 1
Nghost:        1187.17 ave        1434 max         933 min
Histogram: 1 1 0 0 0 1 1 1 0 1
Neighs:        15635.3 ave       18526 max       13147 min
Histogram: 1 1 0 1 1 0 0 1 0 1

Total # of neighbors = 93812
Ave neighs/atom = 15.111469
Ave special neighs/atom = 1.9793814
Neighbor list builds = 360
Dangerous builds = 0

if "${myDensity} > 1.0" then "jump SELF break"

next a
jump SELF loop
variable a loop 1000
change_box all x scale 0.95 y scale 0.95 z scale 0.95 remap
Changing box ...
  orthogonal box = (361.67141 349.12780 349.12780) to (838.32859 850.87220 850.87220)
  orthogonal box = (361.67141 361.67141 349.12780) to (838.32859 838.32859 850.87220)
  orthogonal box = (361.67141 361.67141 361.67141) to (838.32859 838.32859 838.32859)
run 8000
Per MPI rank memory allocation (min/avg/max) = 11.78 | 11.81 | 11.86 Mbytes
Step PotEng Temp Press KinEng Lx Ly Lz Pzz S/CPU Density 
 1142001    3209.3869    389.63666     23.30623    7209.0139    476.65718    476.65718    476.65718    23.210662            0  0.010681049 
 1150001    1113.1274    397.92049   0.71845344    7362.2804    476.65718    476.65718    476.65718    1.2534818    1815.2317  0.010681049 
Loop time of 4.40718 on 6 procs for 8000 steps with 6208 atoms

Performance: 1568.350 ns/day, 0.015 hours/ns, 1815.220 timesteps/s
99.7% CPU use with 6 MPI tasks x no OpenMP threads

MPI task timing breakdown:
Section |  min time  |  avg time  |  max time  |%varavg| %total
---------------------------------------------------------------
Pair    | 1.6163     | 2.4687     | 3.0231     |  30.3 | 56.02
Bond    | 0.060298   | 0.086931   | 0.10505    |   4.8 |  1.97
Neigh   | 0.33753    | 0.34021    | 0.34189    |   0.2 |  7.72
Comm    | 0.39988    | 1.0343     | 2.0099     |  53.0 | 23.47
Output  | 4.1962e-05 | 5.877e-05  | 9.6083e-05 |   0.0 |  0.00
Modify  | 0.31136    | 0.43822    | 0.52391    |  10.2 |  9.94
Other   |            | 0.03874    |            |       |  0.88

Nlocal:        1034.67 ave        1258 max         670 min
Histogram: 1 0 0 0 0 2 0 1 1 1
Nghost:        1209.67 ave        1422 max        1052 min
Histogram: 1 0 1 1 1 1 0 0 0 1
Neighs:        15194.8 ave       17834 max        9061 min
Histogram: 1 0 0 0 0 0 1 1 1 2

Total # of neighbors = 91169
Ave neighs/atom = 14.685728
Ave special neighs/atom = 1.9793814
Neighbor list builds = 359
Dangerous builds = 0

if "${myDensity} > 1.0" then "jump SELF break"

next a
jump SELF loop
variable a loop 1000
change_box all x scale 0.95 y scale 0.95 z scale 0.95 remap
Changing box ...
  orthogonal box = (373.58784 361.67141 361.67141) to (826.41216 838.32859 838.32859)
  orthogonal box = (373.58784 373.58784 361.67141) to (826.41216 826.41216 838.32859)
  orthogonal box = (373.58784 373.58784 373.58784) to (826.41216 826.41216 826.41216)
run 8000
Per MPI rank memory allocation (min/avg/max) = 11.78 | 11.81 | 11.86 Mbytes
Step PotEng Temp Press KinEng Lx Ly Lz Pzz S/CPU Density 
 1150001    3300.0207    397.92049    27.720537    7362.2804    452.82432    452.82432    452.82432    28.115898            0   0.01245785 
 1158001    1060.4807     393.5582   0.16301456    7281.5698    452.82432    452.82432    452.82432   0.37494298    1891.2601   0.01245785 
Loop time of 4.23008 on 6 procs for 8000 steps with 6208 atoms

Performance: 1634.011 ns/day, 0.015 hours/ns, 1891.216 timesteps/s
99.6% CPU use with 6 MPI tasks x no OpenMP threads

MPI task timing breakdown:
Section |  min time  |  avg time  |  max time  |%varavg| %total
---------------------------------------------------------------
Pair    | 1.5092     | 2.4706     | 2.8297     |  28.9 | 58.41
Bond    | 0.056828   | 0.086958   | 0.10346    |   5.2 |  2.06
Neigh   | 0.33537    | 0.33794    | 0.33969    |   0.3 |  7.99
Comm    | 0.46636    | 0.86093    | 1.9652     |  56.2 | 20.35
Output  | 4.0054e-05 | 6.4333e-05 | 0.00015593 |   0.0 |  0.00
Modify  | 0.29499    | 0.43861    | 0.51777    |  11.2 | 10.37
Other   |            | 0.03498    |            |       |  0.83

Nlocal:        1034.67 ave        1212 max         692 min
Histogram: 1 0 0 0 1 0 0 1 1 2
Nghost:        1320.83 ave        1425 max        1214 min
Histogram: 1 1 1 0 0 0 0 1 1 1
Neighs:        16062.7 ave       18610 max       10903 min
Histogram: 1 0 0 0 1 0 0 1 1 2

Total # of neighbors = 96376
Ave neighs/atom = 15.524485
Ave special neighs/atom = 1.9793814
Neighbor list builds = 361
Dangerous builds = 0

if "${myDensity} > 1.0" then "jump SELF break"

next a
jump SELF loop
variable a loop 1000
change_box all x scale 0.95 y scale 0.95 z scale 0.95 remap
Changing box ...
  orthogonal box = (384.90845 373.58784 373.58784) to (815.09155 826.41216 826.41216)
  orthogonal box = (384.90845 384.90845 373.58784) to (815.09155 815.09155 826.41216)
  orthogonal box = (384.90845 384.90845 384.90845) to (815.09155 815.09155 815.09155)
run 8000
Per MPI rank memory allocation (min/avg/max) = 11.78 | 11.81 | 11.86 Mbytes
Step PotEng Temp Press KinEng Lx Ly Lz Pzz S/CPU Density 
 1158001    3136.0093     393.5582    31.800519    7281.5698    430.18311    430.18311    430.18311    31.595409            0  0.014530223 
 1166001    1134.3601    393.16474   0.10747777    7274.2899    430.18311    430.18311    430.18311  0.070415349    1807.7143  0.014530223 
Loop time of 4.42559 on 6 procs for 8000 steps with 6208 atoms

Performance: 1561.824 ns/day, 0.015 hours/ns, 1807.667 timesteps/s
99.8% CPU use with 6 MPI tasks x no OpenMP threads

MPI task timing breakdown:
Section |  min time  |  avg time  |  max time  |%varavg| %total
---------------------------------------------------------------
Pair    | 1.7778     | 2.5902     | 2.9674     |  28.3 | 58.53
Bond    | 0.05972    | 0.086794   | 0.10143    |   5.1 |  1.96
Neigh   | 0.36281    | 0.36592    | 0.36813    |   0.3 |  8.27
Comm    | 0.46843    | 0.91079    | 1.8502     |  54.9 | 20.58
Output  | 4.6968e-05 | 7.6334e-05 | 0.00018096 |   0.0 |  0.00
Modify  | 0.31003    | 0.43797    | 0.50677    |  11.0 |  9.90
Other   |            | 0.03388    |            |       |  0.77

Nlocal:        1034.67 ave        1218 max         703 min
Histogram: 1 0 0 1 0 0 0 1 2 1
Nghost:        1504.00 ave        1730 max        1295 min
Histogram: 1 0 1 1 0 1 0 1 0 1
Neighs:        15997.7 ave       19553 max       10585 min
Histogram: 1 0 1 0 0 0 1 0 2 1

Total # of neighbors = 95986
Ave neighs/atom = 15.461662
Ave special neighs/atom = 1.9793814
Neighbor list builds = 366
Dangerous builds = 0

if "${myDensity} > 1.0" then "jump SELF break"

next a
jump SELF loop
variable a loop 1000
change_box all x scale 0.95 y scale 0.95 z scale 0.95 remap
Changing box ...
  orthogonal box = (395.66302 384.90845 384.90845) to (804.33698 815.09155 815.09155)
  orthogonal box = (395.66302 395.66302 384.90845) to (804.33698 804.33698 815.09155)
  orthogonal box = (395.66302 395.66302 395.66302) to (804.33698 804.33698 804.33698)
run 8000
Per MPI rank memory allocation (min/avg/max) = 11.78 | 11.82 | 11.87 Mbytes
Step PotEng Temp Press KinEng Lx Ly Lz Pzz S/CPU Density 
 1166001    3182.6874    393.16474    36.791307    7274.2899    408.67395    408.67395    408.67395    36.705495            0  0.016947337 
 1174001    1078.6952    396.85546  -0.22907687    7342.5752    408.67395    408.67395    408.67395   -1.2152747     1783.355  0.016947337 
Loop time of 4.48596 on 6 procs for 8000 steps with 6208 atoms

Performance: 1540.808 ns/day, 0.016 hours/ns, 1783.343 timesteps/s
99.7% CPU use with 6 MPI tasks x no OpenMP threads

MPI task timing breakdown:
Section |  min time  |  avg time  |  max time  |%varavg| %total
---------------------------------------------------------------
Pair    | 1.7815     | 2.5401     | 3.0175     |  26.8 | 56.62
Bond    | 0.061363   | 0.086732   | 0.10293    |   5.1 |  1.93
Neigh   | 0.36871    | 0.37089    | 0.37239    |   0.2 |  8.27
Comm    | 0.46139    | 1.0134     | 1.8887     |  49.2 | 22.59
Output  | 3.6955e-05 | 5.2571e-05 | 8.4877e-05 |   0.0 |  0.00
Modify  | 0.31721    | 0.43702    | 0.51408    |  11.0 |  9.74
Other   |            | 0.03781    |            |       |  0.84

Nlocal:        1034.67 ave        1270 max         757 min
Histogram: 1 0 1 1 0 0 0 1 1 1
Nghost:        1714.67 ave        1957 max        1490 min
Histogram: 1 1 0 0 2 0 0 0 1 1
Neighs:        16097.3 ave       21958 max       11024 min
Histogram: 1 0 1 1 0 1 1 0 0 1

Total # of neighbors = 96584
Ave neighs/atom = 15.557990
Ave special neighs/atom = 1.9793814
Neighbor list builds = 364
Dangerous builds = 0

if "${myDensity} > 1.0" then "jump SELF break"

next a
jump SELF loop
variable a loop 1000
change_box all x scale 0.95 y scale 0.95 z scale 0.95 remap
Changing box ...
  orthogonal box = (405.87987 395.66302 395.66302) to (794.12013 804.33698 804.33698)
  orthogonal box = (405.87987 405.87987 395.66302) to (794.12013 794.12013 804.33698)
  orthogonal box = (405.87987 405.87987 405.87987) to (794.12013 794.12013 794.12013)
run 8000
Per MPI rank memory allocation (min/avg/max) = 11.78 | 11.82 | 11.87 Mbytes
Step PotEng Temp Press KinEng Lx Ly Lz Pzz S/CPU Density 
 1174001    3079.0733    396.85546    42.725224    7342.5752    388.24025    388.24025    388.24025    42.478941            0   0.01976654 
 1182001    1048.1943    385.18704  -0.37796263    7126.6875    388.24025    388.24025    388.24025  0.076426663    1641.1041   0.01976654 
Loop time of 4.87486 on 6 procs for 8000 steps with 6208 atoms

Performance: 1417.887 ns/day, 0.017 hours/ns, 1641.073 timesteps/s
99.7% CPU use with 6 MPI tasks x no OpenMP threads

MPI task timing breakdown:
Section |  min time  |  avg time  |  max time  |%varavg| %total
---------------------------------------------------------------
Pair    | 1.8979     | 2.582      | 3.4163     |  33.9 | 52.97
Bond    | 0.067172   | 0.087065   | 0.10654    |   5.0 |  1.79
Neigh   | 0.40311    | 0.4039     | 0.40451    |   0.1 |  8.29
Comm    | 0.40162    | 1.3263     | 2.0987     |  53.1 | 27.21
Output  | 3.9101e-05 | 6.187e-05  | 0.00014591 |   0.0 |  0.00
Modify  | 0.3458     | 0.43773    | 0.5301     |  10.7 |  8.98
Other   |            | 0.03779    |            |       |  0.78

Nlocal:        1034.67 ave        1192 max         753 min
Histogram: 1 0 1 0 0 0 0 1 0 3
Nghost:        1805.33 ave        1981 max        1566 min
Histogram: 1 0 1 0 0 1 1 0 0 2
Neighs:        16106.0 ave       20076 max       11358 min
Histogram: 1 1 0 0 0 1 0 1 1 1

Total # of neighbors = 96636
Ave neighs/atom = 15.566366
Ave special neighs/atom = 1.9793814
Neighbor list builds = 361
Dangerous builds = 0

if "${myDensity} > 1.0" then "jump SELF break"

next a
jump SELF loop
variable a loop 1000
change_box all x scale 0.95 y scale 0.95 z scale 0.95 remap
Changing box ...
  orthogonal box = (415.58588 405.87987 405.87987) to (784.41412 794.12013 794.12013)
  orthogonal box = (415.58588 415.58588 405.87987) to (784.41412 784.41412 794.12013)
  orthogonal box = (415.58588 415.58588 415.58588) to (784.41412 784.41412 784.41412)
run 8000
Per MPI rank memory allocation (min/avg/max) = 11.79 | 11.82 | 11.87 Mbytes
Step PotEng Temp Press KinEng Lx Ly Lz Pzz S/CPU Density 
 1182001    3074.0738    385.18704     50.06136    7126.6875    368.82824    368.82824    368.82824     51.30257            0  0.023054719 
 1190001    1045.4964    396.19952   0.23393854    7330.4391    368.82824    368.82824    368.82824  -0.42570904     1720.986  0.023054719 
Loop time of 4.6486 on 6 procs for 8000 steps with 6208 atoms

Performance: 1486.901 ns/day, 0.016 hours/ns, 1720.950 timesteps/s
99.7% CPU use with 6 MPI tasks x no OpenMP threads

MPI task timing breakdown:
Section |  min time  |  avg time  |  max time  |%varavg| %total
---------------------------------------------------------------
Pair    | 1.8951     | 2.6607     | 3.1138     |  29.5 | 57.24
Bond    | 0.071847   | 0.087287   | 0.097743   |   3.8 |  1.88
Neigh   | 0.37167    | 0.37341    | 0.37469    |   0.2 |  8.03
Comm    | 0.5548     | 1.0563     | 1.8952     |  51.5 | 22.72
Output  | 4.6015e-05 | 6.7631e-05 | 0.00014901 |   0.0 |  0.00
Modify  | 0.36068    | 0.43919    | 0.4878     |   8.0 |  9.45
Other   |            | 0.03169    |            |       |  0.68

Nlocal:        1034.67 ave        1134 max         874 min
Histogram: 1 1 0 0 0 0 0 1 1 2
Nghost:        1917.17 ave        2036 max        1612 min
Histogram: 1 0 0 0 0 0 2 0 0 3
Neighs:        16964.0 ave       19795 max       13228 min
Histogram: 2 0 0 0 0 0 0 2 1 1

Total # of neighbors = 101784
Ave neighs/atom = 16.395619
Ave special neighs/atom = 1.9793814
Neighbor list builds = 361
Dangerous builds = 0

if "${myDensity} > 1.0" then "jump SELF break"

next a
jump SELF loop
variable a loop 1000
change_box all x scale 0.95 y scale 0.95 z scale 0.95 remap
Changing box ...
  orthogonal box = (424.80659 415.58588 415.58588) to (775.19341 784.41412 784.41412)
  orthogonal box = (424.80659 424.80659 415.58588) to (775.19341 775.19341 784.41412)
  orthogonal box = (424.80659 424.80659 424.80659) to (775.19341 775.19341 775.19341)
run 8000
Per MPI rank memory allocation (min/avg/max) = 11.79 | 11.82 | 11.87 Mbytes
Step PotEng Temp Press KinEng Lx Ly Lz Pzz S/CPU Density 
 1190001    3118.1359    396.19952    59.001531    7330.4391    350.38683    350.38683    350.38683    58.585684            0  0.026889889 
 1198001    1140.2178    391.90087  -0.52629946     7250.906    350.38683    350.38683    350.38683   -1.1807374    1783.6194  0.026889889 
Loop time of 4.48529 on 6 procs for 8000 steps with 6208 atoms

Performance: 1541.038 ns/day, 0.016 hours/ns, 1783.608 timesteps/s
99.7% CPU use with 6 MPI tasks x no OpenMP threads

MPI task timing breakdown:
Section |  min time  |  avg time  |  max time  |%varavg| %total
---------------------------------------------------------------
Pair    | 2.428      | 2.7013     | 3.0187     |  13.0 | 60.23
Bond    | 0.077934   | 0.087301   | 0.09899    |   2.8 |  1.95
Neigh   | 0.38408    | 0.38686    | 0.38973    |   0.3 |  8.63
Comm    | 0.4682     | 0.83927    | 1.1586     |  26.8 | 18.71
Output  | 3.9816e-05 | 4.8757e-05 | 6.6042e-05 |   0.0 |  0.00
Modify  | 0.39003    | 0.43954    | 0.49259    |   5.9 |  9.80
Other   |            | 0.03095    |            |       |  0.69

Nlocal:        1034.67 ave        1165 max         894 min
Histogram: 1 0 1 0 1 1 0 0 1 1
Nghost:        2098.17 ave        2450 max        1723 min
Histogram: 2 0 0 0 1 0 1 0 0 2
Neighs:        17465.7 ave       18736 max       16161 min
Histogram: 2 0 1 0 0 0 0 1 0 2

Total # of neighbors = 104794
Ave neighs/atom = 16.880477
Ave special neighs/atom = 1.9793814
Neighbor list builds = 359
Dangerous builds = 0

if "${myDensity} > 1.0" then "jump SELF break"

next a
jump SELF loop
variable a loop 1000
change_box all x scale 0.95 y scale 0.95 z scale 0.95 remap
Changing box ...
  orthogonal box = (433.56626 424.80659 424.80659) to (766.43374 775.19341 775.19341)
  orthogonal box = (433.56626 433.56626 424.80659) to (766.43374 766.43374 775.19341)
  orthogonal box = (433.56626 433.56626 433.56626) to (766.43374 766.43374 766.43374)
run 8000
Per MPI rank memory allocation (min/avg/max) = 11.79 | 11.82 | 11.87 Mbytes
Step PotEng Temp Press KinEng Lx Ly Lz Pzz S/CPU Density 
 1198001    3142.4389    391.90087    67.823639     7250.906    332.86749    332.86749    332.86749    67.071147            0  0.031363043 
 1206001    1104.0665    388.28813   0.98144735    7184.0635    332.86749    332.86749    332.86749 -0.081200959    1648.0543  0.031363043 
Loop time of 4.85431 on 6 procs for 8000 steps with 6208 atoms

Performance: 1423.890 ns/day, 0.017 hours/ns, 1648.020 timesteps/s
99.7% CPU use with 6 MPI tasks x no OpenMP threads

MPI task timing breakdown:
Section |  min time  |  avg time  |  max time  |%varavg| %total
---------------------------------------------------------------
Pair    | 2.2572     | 2.7715     | 3.3254     |  22.3 | 57.09
Bond    | 0.073275   | 0.087576   | 0.10678    |   3.8 |  1.80
Neigh   | 0.40024    | 0.40173    | 0.40363    |   0.2 |  8.28
Comm    | 0.46731    | 1.1118     | 1.7        |  40.4 | 22.90
Output  | 0.0023479  | 0.0025159  | 0.0027549  |   0.3 |  0.05
Modify  | 0.36902    | 0.43967    | 0.53231    |   8.2 |  9.06
Other   |            | 0.03951    |            |       |  0.81

Nlocal:        1034.67 ave        1313 max         890 min
Histogram: 2 1 0 1 1 0 0 0 0 1
Nghost:        2141.83 ave        2647 max        1863 min
Histogram: 2 1 0 0 2 0 0 0 0 1
Neighs:        17579.7 ave       21402 max       15185 min
Histogram: 1 1 1 1 0 1 0 0 0 1

Total # of neighbors = 105478
Ave neighs/atom = 16.990657
Ave special neighs/atom = 1.9793814
Neighbor list builds = 356
Dangerous builds = 0

if "${myDensity} > 1.0" then "jump SELF break"

next a
jump SELF loop
variable a loop 1000
change_box all x scale 0.95 y scale 0.95 z scale 0.95 remap
Changing box ...
  orthogonal box = (441.88794 433.56626 433.56626) to (758.11206 766.43374 766.43374)
  orthogonal box = (441.88794 441.88794 433.56626) to (758.11206 758.11206 766.43374)
  orthogonal box = (441.88794 441.88794 441.88794) to (758.11206 758.11206 758.11206)
run 8000
Per MPI rank memory allocation (min/avg/max) = 11.80 | 11.83 | 11.87 Mbytes
Step PotEng Temp Press KinEng Lx Ly Lz Pzz S/CPU Density 
 1206001     3258.386    388.28813    81.432233    7184.0635    316.22411    316.22411    316.22411    78.593994            0   0.03658031 
 1214001    971.52063    388.76915  -0.60282062    7192.9633    316.22411    316.22411    316.22411   0.56130501    1481.2903   0.03658031 
Loop time of 5.40079 on 6 procs for 8000 steps with 6208 atoms

Performance: 1279.813 ns/day, 0.019 hours/ns, 1481.265 timesteps/s
99.7% CPU use with 6 MPI tasks x no OpenMP threads

MPI task timing breakdown:
Section |  min time  |  avg time  |  max time  |%varavg| %total
---------------------------------------------------------------
Pair    | 2.4557     | 2.9368     | 3.7412     |  23.0 | 54.38
Bond    | 0.074195   | 0.087494   | 0.11307    |   4.2 |  1.62
Neigh   | 0.47726    | 0.4795     | 0.48216    |   0.2 |  8.88
Comm    | 0.48591    | 1.4091     | 1.9618     |  38.1 | 26.09
Output  | 4.0054e-05 | 7.3353e-05 | 0.000144   |   0.0 |  0.00
Modify  | 0.37364    | 0.43899    | 0.56394    |   9.2 |  8.13
Other   |            | 0.04878    |            |       |  0.90

Nlocal:        1034.67 ave        1340 max         868 min
Histogram: 1 1 1 2 0 0 0 0 0 1
Nghost:        2174.50 ave        2561 max        1838 min
Histogram: 1 1 0 2 0 0 0 0 1 1
Neighs:        18957.7 ave       24570 max       14843 min
Histogram: 1 0 1 1 1 1 0 0 0 1

Total # of neighbors = 113746
Ave neighs/atom = 18.322487
Ave special neighs/atom = 1.9793814
Neighbor list builds = 359
Dangerous builds = 0

if "${myDensity} > 1.0" then "jump SELF break"

next a
jump SELF loop
variable a loop 1000
change_box all x scale 0.95 y scale 0.95 z scale 0.95 remap
Changing box ...
  orthogonal box = (449.79355 441.88794 441.88794) to (750.20645 758.11206 758.11206)
  orthogonal box = (449.79355 449.79355 441.88794) to (750.20645 750.20645 758.11206)
  orthogonal box = (449.79355 449.79355 449.79355) to (750.20645 750.20645 750.20645)
run 8000
Per MPI rank memory allocation (min/avg/max) = 11.80 | 11.83 | 11.87 Mbytes
Step PotEng Temp Press KinEng Lx Ly Lz Pzz S/CPU Density 
 1214001    3008.4207    388.76915    93.203024    7192.9633    300.41291    300.41291    300.41291    93.652017            0  0.042665473 
 1222001    995.13898    394.57977   0.18136682    7300.4708    300.41291    300.41291    300.41291  -0.98649435    1379.6852  0.042665473 
Loop time of 5.79853 on 6 procs for 8000 steps with 6208 atoms

Performance: 1192.025 ns/day, 0.020 hours/ns, 1379.659 timesteps/s
99.7% CPU use with 6 MPI tasks x no OpenMP threads

MPI task timing breakdown:
Section |  min time  |  avg time  |  max time  |%varavg| %total
---------------------------------------------------------------
Pair    | 2.5072     | 3.0996     | 4.0923     |  28.3 | 53.45
Bond    | 0.073233   | 0.087516   | 0.10746    |   3.7 |  1.51
Neigh   | 0.50883    | 0.51168    | 0.51473    |   0.3 |  8.82
Comm    | 0.53527    | 1.616      | 2.2853     |  43.1 | 27.87
Output  | 3.9101e-05 | 7.2996e-05 | 0.00015903 |   0.0 |  0.00
Modify  | 0.36759    | 0.43902    | 0.53577    |   7.9 |  7.57
Other   |            | 0.04464    |            |       |  0.77

Nlocal:        1034.67 ave        1255 max         855 min
Histogram: 1 2 0 0 0 1 0 0 1 1
Nghost:        2346.00 ave        2987 max        2043 min
Histogram: 1 2 1 0 1 0 0 0 0 1
Neighs:        19261.0 ave       24141 max       15869 min
Histogram: 2 1 0 0 0 0 2 0 0 1

Total # of neighbors = 115566
Ave neighs/atom = 18.615657
Ave special neighs/atom = 1.9793814
Neighbor list builds = 363
Dangerous builds = 0

if "${myDensity} > 1.0" then "jump SELF break"

next a
jump SELF loop
variable a loop 1000
change_box all x scale 0.95 y scale 0.95 z scale 0.95 remap
Changing box ...
  orthogonal box = (457.30387 449.79355 449.79355) to (742.69613 750.20645 750.20645)
  orthogonal box = (457.30387 457.30387 449.79355) to (742.69613 742.69613 750.20645)
  orthogonal box = (457.30387 457.30387 457.30387) to (742.69613 742.69613 742.69613)
run 8000
Per MPI rank memory allocation (min/avg/max) = 11.80 | 11.83 | 11.88 Mbytes
Step PotEng Temp Press KinEng Lx Ly Lz Pzz S/CPU Density 
 1222001    3068.5095    394.57977    109.46269    7300.4708    285.39226    285.39226    285.39226     111.4065            0  0.049762908 
 1230001    907.11519     396.9339   -1.6476212    7344.0265    285.39226    285.39226    285.39226   0.54131928    1401.6562  0.049762908 
Loop time of 5.70763 on 6 procs for 8000 steps with 6208 atoms

Performance: 1211.011 ns/day, 0.020 hours/ns, 1401.633 timesteps/s
99.7% CPU use with 6 MPI tasks x no OpenMP threads

MPI task timing breakdown:
Section |  min time  |  avg time  |  max time  |%varavg| %total
---------------------------------------------------------------
Pair    | 2.5103     | 3.1575     | 3.9108     |  30.8 | 55.32
Bond    | 0.071976   | 0.087688   | 0.10656    |   4.7 |  1.54
Neigh   | 0.48462    | 0.4887     | 0.49216    |   0.4 |  8.56
Comm    | 0.66898    | 1.4902     | 2.2224     |  50.2 | 26.11
Output  | 3.9816e-05 | 7.0453e-05 | 0.0001421  |   0.0 |  0.00
Modify  | 0.36006    | 0.4388     | 0.52915    |  10.1 |  7.69
Other   |            | 0.0446     |            |       |  0.78

Nlocal:        1034.67 ave        1264 max         822 min
Histogram: 1 1 1 0 0 1 0 0 0 2
Nghost:        2580.83 ave        3040 max        2163 min
Histogram: 1 1 1 0 0 1 0 0 1 1
Neighs:        20844.8 ave       26023 max       15936 min
Histogram: 2 1 0 0 0 0 0 1 1 1

Total # of neighbors = 125069
Ave neighs/atom = 20.146424
Ave special neighs/atom = 1.9793814
Neighbor list builds = 359
Dangerous builds = 0

if "${myDensity} > 1.0" then "jump SELF break"

next a
jump SELF loop
variable a loop 1000
change_box all x scale 0.95 y scale 0.95 z scale 0.95 remap
Changing box ...
  orthogonal box = (464.43868 457.30387 457.30387) to (735.56132 742.69613 742.69613)
  orthogonal box = (464.43868 464.43868 457.30387) to (735.56132 735.56132 742.69613)
  orthogonal box = (464.43868 464.43868 464.43868) to (735.56132 735.56132 735.56132)
run 8000
Per MPI rank memory allocation (min/avg/max) = 11.80 | 11.83 | 11.88 Mbytes
Step PotEng Temp Press KinEng Lx Ly Lz Pzz S/CPU Density 
 1230001    2858.5263     396.9339    124.46795    7344.0265    271.12265    271.12265    271.12265    126.02158            0  0.058041006 
 1238001    898.03349    395.94923    -1.229047    7325.8083    271.12265    271.12265    271.12265  -0.53758452    1340.5082  0.058041006 
Loop time of 5.96798 on 6 procs for 8000 steps with 6208 atoms

Performance: 1158.180 ns/day, 0.021 hours/ns, 1340.486 timesteps/s
99.7% CPU use with 6 MPI tasks x no OpenMP threads

MPI task timing breakdown:
Section |  min time  |  avg time  |  max time  |%varavg| %total
---------------------------------------------------------------
Pair    | 2.4357     | 3.2988     | 4.1615     |  35.7 | 55.28
Bond    | 0.068114   | 0.087685   | 0.11076    |   5.1 |  1.47
Neigh   | 0.52982    | 0.53166    | 0.53441    |   0.2 |  8.91
Comm    | 0.59183    | 1.5656     | 2.5266     |  57.5 | 26.23
Output  | 4.1008e-05 | 6.938e-05  | 0.00014901 |   0.0 |  0.00
Modify  | 0.34047    | 0.43836    | 0.5477     |  10.8 |  7.35
Other   |            | 0.04583    |            |       |  0.77

Nlocal:        1034.67 ave        1280 max         846 min
Histogram: 3 0 0 0 0 0 1 0 1 1
Nghost:        2695.17 ave        2919 max        2551 min
Histogram: 2 0 1 0 1 0 1 0 0 1
Neighs:        20685.2 ave       27837 max       14867 min
Histogram: 2 1 0 0 0 0 1 0 1 1

Total # of neighbors = 124111
Ave neighs/atom = 19.992107
Ave special neighs/atom = 1.9793814
Neighbor list builds = 359
Dangerous builds = 0

if "${myDensity} > 1.0" then "jump SELF break"

next a
jump SELF loop
variable a loop 1000
change_box all x scale 0.95 y scale 0.95 z scale 0.95 remap
Changing box ...
  orthogonal box = (471.21674 464.43868 464.43868) to (728.78326 735.56132 735.56132)
  orthogonal box = (471.21674 471.21674 464.43868) to (728.78326 728.78326 735.56132)
  orthogonal box = (471.21674 471.21674 471.21674) to (728.78326 728.78326 728.78326)
run 8000
Per MPI rank memory allocation (min/avg/max) = 11.80 | 11.83 | 11.88 Mbytes
Step PotEng Temp Press KinEng Lx Ly Lz Pzz S/CPU Density 
 1238001    2890.0045    395.94923    146.45759    7325.8083    257.56652    257.56652    257.56652    147.13814            0  0.067696173 
 1246001    915.47311    385.70181   -2.2105586    7136.2116    257.56652    257.56652    257.56652   -4.5209374     1250.127  0.067696173 
Loop time of 6.39945 on 6 procs for 8000 steps with 6208 atoms

Performance: 1080.094 ns/day, 0.022 hours/ns, 1250.108 timesteps/s
99.7% CPU use with 6 MPI tasks x no OpenMP threads

MPI task timing breakdown:
Section |  min time  |  avg time  |  max time  |%varavg| %total
---------------------------------------------------------------
Pair    | 2.3246     | 3.3552     | 4.5262     |  44.3 | 52.43
Bond    | 0.072147   | 0.087769   | 0.11166    |   5.4 |  1.37
Neigh   | 0.55282    | 0.5541     | 0.55529    |   0.1 |  8.66
Comm    | 0.63386    | 1.9145     | 3.0145     |  64.0 | 29.92
Output  | 4.1962e-05 | 7.4546e-05 | 0.00015807 |   0.0 |  0.00
Modify  | 0.36396    | 0.4384     | 0.55096    |  11.4 |  6.85
Other   |            | 0.04934    |            |       |  0.77

Nlocal:        1034.67 ave        1293 max         818 min
Histogram: 1 1 1 0 0 0 1 1 0 1
Nghost:        2849.33 ave        3124 max        2689 min
Histogram: 2 0 1 1 0 0 1 0 0 1
Neighs:        20698.8 ave       27252 max       13872 min
Histogram: 1 1 0 1 0 0 0 1 1 1

Total # of neighbors = 124193
Ave neighs/atom = 20.005316
Ave special neighs/atom = 1.9793814
Neighbor list builds = 357
Dangerous builds = 0

if "${myDensity} > 1.0" then "jump SELF break"

next a
jump SELF loop
variable a loop 1000
change_box all x scale 0.95 y scale 0.95 z scale 0.95 remap
Changing box ...
  orthogonal box = (477.65590 471.21674 471.21674) to (722.34410 728.78326 728.78326)
  orthogonal box = (477.65590 477.65590 471.21674) to (722.34410 722.34410 728.78326)
  orthogonal box = (477.65590 477.65590 477.65590) to (722.34410 722.34410 722.34410)
run 8000
Per MPI rank memory allocation (min/avg/max) = 11.80 | 11.84 | 11.88 Mbytes
Step PotEng Temp Press KinEng Lx Ly Lz Pzz S/CPU Density 
 1246001    2894.1707    385.70181    169.67895    7136.2116    244.68819    244.68819    244.68819    168.55372            0  0.078957484 
 1254001    961.40351    394.81615   -1.5907622    7304.8443    244.68819    244.68819    244.68819   0.22428762    1228.7494  0.078957484 
Loop time of 6.51079 on 6 procs for 8000 steps with 6208 atoms

Performance: 1061.623 ns/day, 0.023 hours/ns, 1228.730 timesteps/s
99.6% CPU use with 6 MPI tasks x no OpenMP threads

MPI task timing breakdown:
Section |  min time  |  avg time  |  max time  |%varavg| %total
---------------------------------------------------------------
Pair    | 2.4953     | 3.568      | 4.4189     |  37.1 | 54.80
Bond    | 0.070576   | 0.088192   | 0.10425    |   4.3 |  1.35
Neigh   | 0.58159    | 0.58478    | 0.5875     |   0.3 |  8.98
Comm    | 0.86334    | 1.7847     | 2.9316     |  56.8 | 27.41
Output  | 4.6968e-05 | 7.7844e-05 | 0.00016689 |   0.0 |  0.00
Modify  | 0.36123    | 0.43913    | 0.51365    |   8.8 |  6.74
Other   |            | 0.04592    |            |       |  0.71

Nlocal:        1034.67 ave        1177 max         840 min
Histogram: 1 1 0 0 1 0 0 0 0 3
Nghost:        3037.50 ave        3586 max        2641 min
Histogram: 1 1 1 0 1 0 1 0 0 1
Neighs:        23378.2 ave       28097 max       16751 min
Histogram: 1 0 1 0 1 0 0 0 2 1

Total # of neighbors = 140269
Ave neighs/atom = 22.594878
Ave special neighs/atom = 1.9793814
Neighbor list builds = 357
Dangerous builds = 0

if "${myDensity} > 1.0" then "jump SELF break"

next a
jump SELF loop
variable a loop 1000
change_box all x scale 0.95 y scale 0.95 z scale 0.95 remap
Changing box ...
  orthogonal box = (483.77311 477.65590 477.65590) to (716.22689 722.34410 722.34410)
  orthogonal box = (483.77311 483.77311 477.65590) to (716.22689 716.22689 722.34410)
  orthogonal box = (483.77311 483.77311 483.77311) to (716.22689 716.22689 716.22689)
run 8000
Per MPI rank memory allocation (min/avg/max) = 11.80 | 11.84 | 11.89 Mbytes
Step PotEng Temp Press KinEng Lx Ly Lz Pzz S/CPU Density 
 1254001    3002.0855    394.81615    202.84126    7304.8443    232.45378    232.45378    232.45378    205.43966            0  0.092092123 
 1262001    949.23364    387.52237   -3.6423449    7169.8954    232.45378    232.45378    232.45378   -4.5177238    1147.6512  0.092092123 
Loop time of 6.97088 on 6 procs for 8000 steps with 6208 atoms

Performance: 991.554 ns/day, 0.024 hours/ns, 1147.632 timesteps/s
99.6% CPU use with 6 MPI tasks x no OpenMP threads

MPI task timing breakdown:
Section |  min time  |  avg time  |  max time  |%varavg| %total
---------------------------------------------------------------
Pair    | 2.6821     | 3.7483     | 4.8848     |  37.2 | 53.77
Bond    | 0.071425   | 0.088353   | 0.10638    |   4.5 |  1.27
Neigh   | 0.65102    | 0.65301    | 0.65664    |   0.3 |  9.37
Comm    | 0.77895    | 1.9929     | 3.1229     |  55.1 | 28.59
Output  | 4.1008e-05 | 8.4718e-05 | 0.00018191 |   0.0 |  0.00
Modify  | 0.35706    | 0.43925    | 0.52474    |   9.4 |  6.30
Other   |            | 0.04894    |            |       |  0.70

Nlocal:        1034.67 ave        1322 max         815 min
Histogram: 2 0 0 2 0 0 0 0 1 1
Nghost:        3466.17 ave        3888 max        3106 min
Histogram: 1 1 0 1 0 0 2 0 0 1
Neighs:        23245.7 ave       32931 max       15161 min
Histogram: 1 0 0 3 0 0 0 1 0 1

Total # of neighbors = 139474
Ave neighs/atom = 22.466817
Ave special neighs/atom = 1.9793814
Neighbor list builds = 361
Dangerous builds = 0

if "${myDensity} > 1.0" then "jump SELF break"

next a
jump SELF loop
variable a loop 1000
change_box all x scale 0.95 y scale 0.95 z scale 0.95 remap
Changing box ...
  orthogonal box = (489.58445 483.77311 483.77311) to (710.41555 716.22689 716.22689)
  orthogonal box = (489.58445 489.58445 483.77311) to (710.41555 710.41555 716.22689)
  orthogonal box = (489.58445 489.58445 489.58445) to (710.41555 710.41555 710.41555)
run 8000
Per MPI rank memory allocation (min/avg/max) = 11.81 | 11.84 | 11.89 Mbytes
Step PotEng Temp Press KinEng Lx Ly Lz Pzz S/CPU Density 
 1262001    2946.5031    387.52237    233.83568    7169.8954    220.83109    220.83109    220.83109     230.8934            0   0.10741172 
 1270001    754.89845    396.61613  -0.45780015    7338.1472    220.83109    220.83109    220.83109   -4.1527979    1104.6059   0.10741172 
Loop time of 7.2425 on 6 procs for 8000 steps with 6208 atoms

Performance: 954.367 ns/day, 0.025 hours/ns, 1104.591 timesteps/s
99.5% CPU use with 6 MPI tasks x no OpenMP threads

MPI task timing breakdown:
Section |  min time  |  avg time  |  max time  |%varavg| %total
---------------------------------------------------------------
Pair    | 2.2856     | 3.912      | 4.959      |  44.2 | 54.01
Bond    | 0.066272   | 0.088473   | 0.10604    |   4.6 |  1.22
Neigh   | 0.69381    | 0.6974     | 0.70184    |   0.3 |  9.63
Comm    | 0.93061    | 2.052      | 3.769      |  64.7 | 28.33
Output  | 4.1008e-05 | 7.4387e-05 | 0.00018191 |   0.0 |  0.00
Modify  | 0.33897    | 0.43942    | 0.52123    |   9.5 |  6.07
Other   |            | 0.05318    |            |       |  0.73

Nlocal:        1034.67 ave        1209 max         748 min
Histogram: 1 0 0 0 0 2 0 1 1 1
Nghost:        3577.50 ave        3983 max        3019 min
Histogram: 2 0 0 0 0 0 1 1 0 2
Neighs:        25811.7 ave       32027 max       12900 min
Histogram: 1 0 0 0 0 0 2 0 2 1

Total # of neighbors = 154870
Ave neighs/atom = 24.946843
Ave special neighs/atom = 1.9793814
Neighbor list builds = 364
Dangerous builds = 0

if "${myDensity} > 1.0" then "jump SELF break"

next a
jump SELF loop
variable a loop 1000
change_box all x scale 0.95 y scale 0.95 z scale 0.95 remap
Changing box ...
  orthogonal box = (495.10523 489.58445 489.58445) to (704.89477 710.41555 710.41555)
  orthogonal box = (495.10523 495.10523 489.58445) to (704.89477 704.89477 710.41555)
  orthogonal box = (495.10523 495.10523 495.10523) to (704.89477 704.89477 704.89477)
run 8000
Per MPI rank memory allocation (min/avg/max) = 11.81 | 11.84 | 11.89 Mbytes
Step PotEng Temp Press KinEng Lx Ly Lz Pzz S/CPU Density 
 1270001    2811.7702    396.61613    275.71103    7338.1472    209.78954    209.78954    209.78954    274.52051            0   0.12527974 
 1278001    856.73808    387.18542  -0.16493179    7163.6612    209.78954    209.78954    209.78954   -2.4135651    1039.2982   0.12527974 
Loop time of 7.6976 on 6 procs for 8000 steps with 6208 atoms

Performance: 897.942 ns/day, 0.027 hours/ns, 1039.285 timesteps/s
99.6% CPU use with 6 MPI tasks x no OpenMP threads

MPI task timing breakdown:
Section |  min time  |  avg time  |  max time  |%varavg| %total
---------------------------------------------------------------
Pair    | 1.9005     | 4.1449     | 5.301      |  54.9 | 53.85
Bond    | 0.0577     | 0.088477   | 0.10369    |   5.0 |  1.15
Neigh   | 0.78321    | 0.78814    | 0.79655    |   0.5 | 10.24
Comm    | 0.97341    | 2.1874     | 4.5598     |  79.7 | 28.42
Output  | 4.1962e-05 | 7.1049e-05 | 0.00017595 |   0.0 |  0.00
Modify  | 0.29482    | 0.4384     | 0.50781    |  10.5 |  5.70
Other   |            | 0.05019    |            |       |  0.65

Nlocal:        1034.67 ave        1201 max         584 min
Histogram: 1 0 0 0 0 0 1 0 1 3
Nghost:        3927.50 ave        4424 max        3302 min
Histogram: 1 0 0 1 0 1 1 1 0 1
Neighs:        26042.8 ave       33541 max       10491 min
Histogram: 1 0 0 0 0 0 2 0 2 1

Total # of neighbors = 156257
Ave neighs/atom = 25.170264
Ave special neighs/atom = 1.9793814
Neighbor list builds = 357
Dangerous builds = 0

if "${myDensity} > 1.0" then "jump SELF break"

next a
jump SELF loop
variable a loop 1000
change_box all x scale 0.95 y scale 0.95 z scale 0.95 remap
Changing box ...
  orthogonal box = (500.34997 495.10523 495.10523) to (699.65003 704.89477 704.89477)
  orthogonal box = (500.34997 500.34997 495.10523) to (699.65003 699.65003 704.89477)
  orthogonal box = (500.34997 500.34997 500.34997) to (699.65003 699.65003 699.65003)
run 8000
Per MPI rank memory allocation (min/avg/max) = 11.81 | 11.85 | 11.90 Mbytes
Step PotEng Temp Press KinEng Lx Ly Lz Pzz S/CPU Density 
 1278001    2939.6929    387.18542    322.05646    7163.6612    199.30006    199.30006    199.30006    315.24862            0   0.14612013 
 1286001    775.48801    383.64351  -0.72705305    7098.1293    199.30006    199.30006    199.30006  -0.36676731     992.0838   0.14612013 
Loop time of 8.06393 on 6 procs for 8000 steps with 6208 atoms

Performance: 857.150 ns/day, 0.028 hours/ns, 992.072 timesteps/s
99.5% CPU use with 6 MPI tasks x no OpenMP threads

MPI task timing breakdown:
Section |  min time  |  avg time  |  max time  |%varavg| %total
---------------------------------------------------------------
Pair    | 2.1168     | 4.3155     | 5.6507     |  53.7 | 53.52
Bond    | 0.054005   | 0.08858    | 0.10548    |   5.7 |  1.10
Neigh   | 0.82463    | 0.82895    | 0.83453    |   0.4 | 10.28
Comm    | 0.92563    | 2.3453     | 4.6951     |  77.9 | 29.08
Output  | 3.9816e-05 | 6.5923e-05 | 0.00016308 |   0.0 |  0.00
Modify  | 0.27715    | 0.43853    | 0.52136    |  11.9 |  5.44
Other   |            | 0.04697    |            |       |  0.58

Nlocal:        1034.67 ave        1253 max         584 min
Histogram: 1 0 0 0 0 1 0 0 3 1
Nghost:        4262.17 ave        4767 max        3732 min
Histogram: 1 0 1 0 0 2 1 0 0 1
Neighs:        28289.3 ave       38368 max       12358 min
Histogram: 1 0 0 0 1 0 1 2 0 1

Total # of neighbors = 169736
Ave neighs/atom = 27.341495
Ave special neighs/atom = 1.9793814
Neighbor list builds = 354
Dangerous builds = 0

if "${myDensity} > 1.0" then "jump SELF break"

next a
jump SELF loop
variable a loop 1000
change_box all x scale 0.95 y scale 0.95 z scale 0.95 remap
Changing box ...
  orthogonal box = (505.33247 500.34997 500.34997) to (694.66753 699.65003 699.65003)
  orthogonal box = (505.33247 505.33247 500.34997) to (694.66753 694.66753 699.65003)
  orthogonal box = (505.33247 505.33247 505.33247) to (694.66753 694.66753 694.66753)
run 8000
Per MPI rank memory allocation (min/avg/max) = 11.82 | 11.85 | 11.90 Mbytes
Step PotEng Temp Press KinEng Lx Ly Lz Pzz S/CPU Density 
 1286001    2866.7317    383.64351    376.74697    7098.1293    189.33506    189.33506    189.33506    375.29684            0   0.17042732 
 1294001    615.49439    385.84661   -1.9368056    7138.8907    189.33506    189.33506    189.33506     1.679653    898.43244   0.17042732 
Loop time of 8.90451 on 6 procs for 8000 steps with 6208 atoms

Performance: 776.236 ns/day, 0.031 hours/ns, 898.421 timesteps/s
99.4% CPU use with 6 MPI tasks x no OpenMP threads

MPI task timing breakdown:
Section |  min time  |  avg time  |  max time  |%varavg| %total
---------------------------------------------------------------
Pair    | 2.5183     | 4.6982     | 6.15       |  53.4 | 52.76
Bond    | 0.05528    | 0.089662   | 0.10972    |   5.7 |  1.01
Neigh   | 0.95493    | 0.95755    | 0.96037    |   0.2 | 10.75
Comm    | 1.126      | 2.6594     | 4.9868     |  75.4 | 29.87
Output  | 4.1008e-05 | 7.5539e-05 | 0.00018311 |   0.0 |  0.00
Modify  | 0.28133    | 0.4397     | 0.52945    |  11.7 |  4.94
Other   |            | 0.05991    |            |       |  0.67

Nlocal:        1034.67 ave        1266 max         732 min
Histogram: 1 0 0 0 0 2 1 1 0 1
Nghost:        4543.00 ave        4714 max        4207 min
Histogram: 1 0 0 0 1 0 0 0 3 1
Neighs:        30836.5 ave       41890 max       18498 min
Histogram: 1 0 1 0 1 1 0 0 1 1

Total # of neighbors = 185019
Ave neighs/atom = 29.803318
Ave special neighs/atom = 1.9793814
Neighbor list builds = 363
Dangerous builds = 0

if "${myDensity} > 1.0" then "jump SELF break"

next a
jump SELF loop
variable a loop 1000
change_box all x scale 0.95 y scale 0.95 z scale 0.95 remap
Changing box ...
  orthogonal box = (510.06585 505.33247 505.33247) to (689.93415 694.66753 694.66753)
  orthogonal box = (510.06585 510.06585 505.33247) to (689.93415 689.93415 694.66753)
  orthogonal box = (510.06585 510.06585 510.06585) to (689.93415 689.93415 689.93415)
run 8000
Per MPI rank memory allocation (min/avg/max) = 11.83 | 11.86 | 11.91 Mbytes
Step PotEng Temp Press KinEng Lx Ly Lz Pzz S/CPU Density 
 1294001    2702.9324    385.84661    441.29845    7138.8907     179.8683     179.8683     179.8683    454.30455            0   0.19877804 
 1302001    713.66613    388.15345   0.68858868    7181.5717     179.8683     179.8683     179.8683    9.1593613    854.47163   0.19877804 
Loop time of 9.3626 on 6 procs for 8000 steps with 6208 atoms

Performance: 738.256 ns/day, 0.033 hours/ns, 854.463 timesteps/s
99.5% CPU use with 6 MPI tasks x no OpenMP threads

MPI task timing breakdown:
Section |  min time  |  avg time  |  max time  |%varavg| %total
---------------------------------------------------------------
Pair    | 2.7998     | 4.9312     | 6.6277     |  51.5 | 52.67
Bond    | 0.06289    | 0.089485   | 0.10755    |   4.5 |  0.96
Neigh   | 1.0072     | 1.0098     | 1.0128     |   0.2 | 10.78
Comm    | 1.0595     | 2.8325     | 5.0742     |  71.2 | 30.25
Output  | 0.0023489  | 0.0025413  | 0.0028269  |   0.3 |  0.03
Modify  | 0.31639    | 0.43976    | 0.52588    |   9.5 |  4.70
Other   |            | 0.05737    |            |       |  0.61

Nlocal:        1034.67 ave        1190 max         736 min
Histogram: 1 0 0 0 0 1 0 2 1 1
Nghost:        4988.00 ave        5136 max        4767 min
Histogram: 1 0 0 0 1 0 1 2 0 1
Neighs:        31471.5 ave       40886 max       20693 min
Histogram: 1 0 0 0 1 1 2 0 0 1

Total # of neighbors = 188829
Ave neighs/atom = 30.417043
Ave special neighs/atom = 1.9793814
Neighbor list builds = 361
Dangerous builds = 0

if "${myDensity} > 1.0" then "jump SELF break"

next a
jump SELF loop
variable a loop 1000
change_box all x scale 0.95 y scale 0.95 z scale 0.95 remap
Changing box ...
  orthogonal box = (514.56256 510.06585 510.06585) to (685.43744 689.93415 689.93415)
  orthogonal box = (514.56256 514.56256 510.06585) to (685.43744 685.43744 689.93415)
  orthogonal box = (514.56256 514.56256 514.56256) to (685.43744 685.43744 685.43744)
run 8000
Per MPI rank memory allocation (min/avg/max) = 11.83 | 11.86 | 11.91 Mbytes
Step PotEng Temp Press KinEng Lx Ly Lz Pzz S/CPU Density 
 1302001    2822.4904    388.15345     515.5287    7181.5717    170.87489    170.87489    170.87489     527.9035            0   0.23184492 
 1310001    651.57439    383.74128   -3.8687801    7099.9383    170.87489    170.87489    170.87489    -6.021939    817.44001   0.23184492 
Loop time of 9.78675 on 6 procs for 8000 steps with 6208 atoms

Performance: 706.261 ns/day, 0.034 hours/ns, 817.432 timesteps/s
99.5% CPU use with 6 MPI tasks x no OpenMP threads

MPI task timing breakdown:
Section |  min time  |  avg time  |  max time  |%varavg| %total
---------------------------------------------------------------
Pair    | 3.1771     | 5.3255     | 6.7499     |  53.5 | 54.42
Bond    | 0.060488   | 0.090096   | 0.10484    |   5.0 |  0.92
Neigh   | 1.0345     | 1.0379     | 1.0419     |   0.2 | 10.60
Comm    | 1.3439     | 2.8346     | 5.1041     |  76.9 | 28.96
Output  | 4.3869e-05 | 7.2281e-05 | 0.00017405 |   0.0 |  0.00
Modify  | 0.30547    | 0.44195    | 0.51325    |  10.6 |  4.52
Other   |            | 0.05666    |            |       |  0.58

Nlocal:        1034.67 ave        1274 max         646 min
Histogram: 1 0 0 0 1 1 0 1 1 1
Nghost:        5359.83 ave        5472 max        5075 min
Histogram: 1 0 0 0 0 1 0 1 0 3
Neighs:        34493.5 ave       48848 max       16880 min
Histogram: 1 0 0 1 0 1 1 1 0 1

Total # of neighbors = 206961
Ave neighs/atom = 33.337790
Ave special neighs/atom = 1.9793814
Neighbor list builds = 358
Dangerous builds = 0

if "${myDensity} > 1.0" then "jump SELF break"

next a
jump SELF loop
variable a loop 1000
change_box all x scale 0.95 y scale 0.95 z scale 0.95 remap
Changing box ...
  orthogonal box = (518.83443 514.56256 514.56256) to (681.16557 685.43744 685.43744)
  orthogonal box = (518.83443 518.83443 514.56256) to (681.16557 681.16557 685.43744)
  orthogonal box = (518.83443 518.83443 518.83443) to (681.16557 681.16557 681.16557)
run 8000
Per MPI rank memory allocation (min/avg/max) = 11.84 | 11.87 | 11.91 Mbytes
Step PotEng Temp Press KinEng Lx Ly Lz Pzz S/CPU Density 
 1310001    2730.3099    383.74128     599.0933    7099.9383    162.33115    162.33115    162.33115    588.59009            0   0.27041251 
 1318001    438.70206    387.54753    2.7054631    7170.3611    162.33115    162.33115    162.33115    6.0906879    674.22234   0.27041251 
Loop time of 11.8656 on 6 procs for 8000 steps with 6208 atoms

Performance: 582.522 ns/day, 0.041 hours/ns, 674.216 timesteps/s
99.5% CPU use with 6 MPI tasks x no OpenMP threads

MPI task timing breakdown:
Section |  min time  |  avg time  |  max time  |%varavg| %total
---------------------------------------------------------------
Pair    | 2.5134     | 5.8447     | 8.6902     |  81.4 | 49.26
Bond    | 0.051253   | 0.091526   | 0.11466    |   6.8 |  0.77
Neigh   | 1.2295     | 1.2335     | 1.2386     |   0.3 | 10.40
Comm    | 1.2365     | 4.1859     | 7.6862     | 100.3 | 35.28
Output  | 5.5075e-05 | 8.897e-05  | 0.00020695 |   0.0 |  0.00
Modify  | 0.254      | 0.44152    | 0.55411    |  14.6 |  3.72
Other   |            | 0.06845    |            |       |  0.58

Nlocal:        1034.67 ave        1317 max         564 min
Histogram: 1 0 0 0 0 2 0 1 1 1
Nghost:        6061.83 ave        6273 max        5837 min
Histogram: 2 0 0 0 0 2 0 0 1 1
Neighs:        38884.8 ave       55724 max       16798 min
Histogram: 1 0 0 0 2 0 0 1 1 1

Total # of neighbors = 233309
Ave neighs/atom = 37.581991
Ave special neighs/atom = 1.9793814
Neighbor list builds = 359
Dangerous builds = 0

if "${myDensity} > 1.0" then "jump SELF break"

next a
jump SELF loop
variable a loop 1000
change_box all x scale 0.95 y scale 0.95 z scale 0.95 remap
Changing box ...
  orthogonal box = (522.89271 518.83443 518.83443) to (677.10729 681.16557 681.16557)
  orthogonal box = (522.89271 522.89271 518.83443) to (677.10729 677.10729 681.16557)
  orthogonal box = (522.89271 522.89271 522.89271) to (677.10729 677.10729 677.10729)
run 8000
Per MPI rank memory allocation (min/avg/max) = 11.85 | 11.88 | 11.92 Mbytes
Step PotEng Temp Press KinEng Lx Ly Lz Pzz S/CPU Density 
 1318001    2593.3475    387.54753    711.62446    7170.3611    154.21459    154.21459    154.21459    726.24792            0   0.31539584 
 1326001    451.33683     389.2192    7.9746007    7201.2901    154.21459    154.21459    154.21459    8.6627101    671.50102   0.31539584 
Loop time of 11.9137 on 6 procs for 8000 steps with 6208 atoms

Performance: 580.172 ns/day, 0.041 hours/ns, 671.496 timesteps/s
99.0% CPU use with 6 MPI tasks x no OpenMP threads

MPI task timing breakdown:
Section |  min time  |  avg time  |  max time  |%varavg| %total
---------------------------------------------------------------
Pair    | 3.2222     | 6.4962     | 8.2448     |  69.4 | 54.53
Bond    | 0.058156   | 0.090849   | 0.10439    |   5.4 |  0.76
Neigh   | 1.2799     | 1.2827     | 1.2863     |   0.2 | 10.77
Comm    | 1.7052     | 3.5115     | 6.9317     |  98.2 | 29.47
Output  | 4.3869e-05 | 7.7526e-05 | 0.0001781  |   0.0 |  0.00
Modify  | 0.28669    | 0.44247    | 0.50732    |  11.9 |  3.71
Other   |            | 0.08994    |            |       |  0.75

Nlocal:        1034.67 ave        1268 max         717 min
Histogram: 1 0 1 0 0 0 1 2 0 1
Nghost:        6448.00 ave        6675 max        6126 min
Histogram: 1 0 1 0 0 0 1 0 2 1
Neighs:        43195.5 ave       58414 max       23326 min
Histogram: 1 1 0 0 0 1 0 1 1 1

Total # of neighbors = 259173
Ave neighs/atom = 41.748228
Ave special neighs/atom = 1.9793814
Neighbor list builds = 359
Dangerous builds = 0

if "${myDensity} > 1.0" then "jump SELF break"

next a
jump SELF loop
variable a loop 1000
change_box all x scale 0.95 y scale 0.95 z scale 0.95 remap
Changing box ...
  orthogonal box = (526.74807 522.89271 522.89271) to (673.25193 677.10729 677.10729)
  orthogonal box = (526.74807 526.74807 522.89271) to (673.25193 673.25193 677.10729)
  orthogonal box = (526.74807 526.74807 526.74807) to (673.25193 673.25193 673.25193)
run 8000
Per MPI rank memory allocation (min/avg/max) = 11.85 | 11.88 | 11.93 Mbytes
Step PotEng Temp Press KinEng Lx Ly Lz Pzz S/CPU Density 
 1326001    2716.6981     389.2192     861.1711    7201.2901    146.50386    146.50386    146.50386    854.75564            0   0.36786218 
 1334001    381.69355    391.41737    19.781137    7241.9604    146.50386    146.50386    146.50386    10.531985    656.60631   0.36786218 
Loop time of 12.184 on 6 procs for 8000 steps with 6208 atoms

Performance: 567.303 ns/day, 0.042 hours/ns, 656.601 timesteps/s
98.8% CPU use with 6 MPI tasks x no OpenMP threads

MPI task timing breakdown:
Section |  min time  |  avg time  |  max time  |%varavg| %total
---------------------------------------------------------------
Pair    | 4.9569     | 7.0934     | 8.6073     |  51.6 | 58.22
Bond    | 0.077898   | 0.0919     | 0.10406    |   3.0 |  0.75
Neigh   | 1.3387     | 1.3409     | 1.3436     |   0.2 | 11.01
Comm    | 1.5894     | 3.1275     | 5.3012     |  79.2 | 25.67
Output  | 4.1008e-05 | 6.9499e-05 | 0.00016785 |   0.0 |  0.00
Modify  | 0.38178    | 0.44497    | 0.50186    |   6.7 |  3.65
Other   |            | 0.08521    |            |       |  0.70

Nlocal:        1034.67 ave        1119 max         868 min
Histogram: 1 0 0 0 0 0 0 3 1 1
Nghost:        7171.33 ave        7279 max        7057 min
Histogram: 1 1 0 0 0 1 1 0 1 1
Neighs:        45848.5 ave       52397 max       33823 min
Histogram: 1 0 0 0 0 0 2 1 1 1

Total # of neighbors = 275091
Ave neighs/atom = 44.312339
Ave special neighs/atom = 1.9793814
Neighbor list builds = 361
Dangerous builds = 0

if "${myDensity} > 1.0" then "jump SELF break"

next a
jump SELF loop
variable a loop 1000
change_box all x scale 0.95 y scale 0.95 z scale 0.95 remap
Changing box ...
  orthogonal box = (530.41067 526.74807 526.74807) to (669.58933 673.25193 673.25193)
  orthogonal box = (530.41067 530.41067 526.74807) to (669.58933 669.58933 673.25193)
  orthogonal box = (530.41067 530.41067 530.41067) to (669.58933 669.58933 669.58933)
run 8000
Per MPI rank memory allocation (min/avg/max) = 11.86 | 11.89 | 11.94 Mbytes
Step PotEng Temp Press KinEng Lx Ly Lz Pzz S/CPU Density 
 1334001    2683.0317    391.41737    1002.6083    7241.9604    139.17867    139.17867    139.17867    993.12695            0   0.42905634 
 1342001    199.47314    390.64478     6.252652     7227.666    139.17867    139.17867    139.17867    2.8542887    631.12387   0.42905634 
Loop time of 12.6759 on 6 procs for 8000 steps with 6208 atoms

Performance: 545.286 ns/day, 0.044 hours/ns, 631.118 timesteps/s
96.9% CPU use with 6 MPI tasks x no OpenMP threads

MPI task timing breakdown:
Section |  min time  |  avg time  |  max time  |%varavg| %total
---------------------------------------------------------------
Pair    | 5.9681     | 7.9165     | 8.6444     |  33.1 | 62.45
Bond    | 0.081873   | 0.094971   | 0.10406    |   2.3 |  0.75
Neigh   | 1.3871     | 1.3882     | 1.3899     |   0.1 | 10.95
Comm    | 1.931      | 2.6792     | 4.659      |  57.9 | 21.14
Output  | 4.2915e-05 | 6.6837e-05 | 0.00016999 |   0.0 |  0.00
Modify  | 0.38912    | 0.44533    | 0.47979    |   4.5 |  3.51
Other   |            | 0.1516     |            |       |  1.20

Nlocal:        1034.67 ave        1103 max         912 min
Histogram: 1 0 0 0 0 0 2 2 0 1
Nghost:        7832.67 ave        7969 max        7649 min
Histogram: 1 1 0 0 0 1 0 1 0 2
Neighs:        52344.8 ave       56977 max       42672 min
Histogram: 1 0 0 0 0 0 1 2 0 2

Total # of neighbors = 314069
Ave neighs/atom = 50.591012
Ave special neighs/atom = 1.9793814
Neighbor list builds = 359
Dangerous builds = 0

if "${myDensity} > 1.0" then "jump SELF break"

next a
jump SELF loop
variable a loop 1000
change_box all x scale 0.95 y scale 0.95 z scale 0.95 remap
Changing box ...
  orthogonal box = (533.89013 530.41067 530.41067) to (666.10987 669.58933 669.58933)
  orthogonal box = (533.89013 533.89013 530.41067) to (666.10987 666.10987 669.58933)
  orthogonal box = (533.89013 533.89013 533.89013) to (666.10987 666.10987 666.10987)
run 8000
Per MPI rank memory allocation (min/avg/max) = 11.87 | 11.90 | 11.94 Mbytes
Step PotEng Temp Press KinEng Lx Ly Lz Pzz S/CPU Density 
 1342001    2451.6992    390.64478    1178.9623     7227.666    132.21973    132.21973    132.21973    1172.2565            0    0.5004302 
 1350001   -64.815601    398.45188     14.89695     7372.112    132.21973    132.21973    132.21973    32.882215    591.13324    0.5004302 
Loop time of 13.5334 on 6 procs for 8000 steps with 6208 atoms

Performance: 510.735 ns/day, 0.047 hours/ns, 591.129 timesteps/s
95.9% CPU use with 6 MPI tasks x no OpenMP threads

MPI task timing breakdown:
Section |  min time  |  avg time  |  max time  |%varavg| %total
---------------------------------------------------------------
Pair    | 8.0587     | 8.9516     | 9.4646     |  16.9 | 66.14
Bond    | 0.089871   | 0.094949   | 0.097871   |   1.0 |  0.70
Neigh   | 1.35       | 1.351      | 1.3525     |   0.1 |  9.98
Comm    | 1.9        | 2.4716     | 3.3998     |  33.7 | 18.26
Output  | 4.6015e-05 | 6.787e-05  | 0.000144   |   0.0 |  0.00
Modify  | 0.42436    | 0.44495    | 0.46032    |   1.9 |  3.29
Other   |            | 0.2193     |            |       |  1.62

Nlocal:        1034.67 ave        1093 max         977 min
Histogram: 1 1 1 0 0 0 1 0 1 1
Nghost:        8677.50 ave        8824 max        8466 min
Histogram: 1 0 0 0 2 0 0 0 2 1
Neighs:        58661.8 ave       64524 max       52128 min
Histogram: 1 0 1 1 0 0 1 0 0 2

Total # of neighbors = 351971
Ave neighs/atom = 56.696360
Ave special neighs/atom = 1.9793814
Neighbor list builds = 364
Dangerous builds = 0

if "${myDensity} > 1.0" then "jump SELF break"

next a
jump SELF loop
variable a loop 1000
change_box all x scale 0.95 y scale 0.95 z scale 0.95 remap
Changing box ...
  orthogonal box = (537.19563 533.89013 533.89013) to (662.80437 666.10987 666.10987)
  orthogonal box = (537.19563 537.19563 533.89013) to (662.80437 662.80437 666.10987)
  orthogonal box = (537.19563 537.19563 537.19563) to (662.80437 662.80437 662.80437)
run 8000
Per MPI rank memory allocation (min/avg/max) = 11.88 | 11.91 | 11.95 Mbytes
Step PotEng Temp Press KinEng Lx Ly Lz Pzz S/CPU Density 
 1350001     2192.553    398.45188    1367.6522     7372.112    125.60875    125.60875    125.60875    1384.3143            0   0.58367716 
 1358001   -300.82134    392.93589    2.0575143    7270.0558    125.60875    125.60875    125.60875    -2.524037     524.1372   0.58367716 
Loop time of 15.2633 on 6 procs for 8000 steps with 6208 atoms

Performance: 452.852 ns/day, 0.053 hours/ns, 524.134 timesteps/s
95.9% CPU use with 6 MPI tasks x no OpenMP threads

MPI task timing breakdown:
Section |  min time  |  avg time  |  max time  |%varavg| %total
---------------------------------------------------------------
Pair    | 9.0099     | 10.182     | 10.691     |  18.0 | 66.71
Bond    | 0.089918   | 0.093753   | 0.098807   |   1.0 |  0.61
Neigh   | 1.5241     | 1.5256     | 1.5269     |   0.1 |  9.99
Comm    | 2.2514     | 2.7919     | 3.9842     |  34.9 | 18.29
Output  | 4.22e-05   | 7.1049e-05 | 0.00013781 |   0.0 |  0.00
Modify  | 0.43598    | 0.44605    | 0.46075    |   1.5 |  2.92
Other   |            | 0.2238     |            |       |  1.47

Nlocal:        1034.67 ave        1144 max         941 min
Histogram: 1 0 1 1 0 1 1 0 0 1
Nghost:        9507.33 ave        9659 max        9317 min
Histogram: 1 0 0 1 1 1 0 0 0 2
Neighs:        67175.8 ave       78901 max       57873 min
Histogram: 1 1 0 0 1 2 0 0 0 1

Total # of neighbors = 403055
Ave neighs/atom = 64.925097
Ave special neighs/atom = 1.9793814
Neighbor list builds = 360
Dangerous builds = 0

if "${myDensity} > 1.0" then "jump SELF break"

next a
jump SELF loop
variable a loop 1000
change_box all x scale 0.95 y scale 0.95 z scale 0.95 remap
Changing box ...
  orthogonal box = (540.33585 537.19563 537.19563) to (659.66415 662.80437 662.80437)
  orthogonal box = (540.33585 540.33585 537.19563) to (659.66415 659.66415 662.80437)
  orthogonal box = (540.33585 540.33585 540.33585) to (659.66415 659.66415 659.66415)
run 8000
Per MPI rank memory allocation (min/avg/max) = 11.89 | 11.92 | 11.97 Mbytes
Step PotEng Temp Press KinEng Lx Ly Lz Pzz S/CPU Density 
 1358001    1985.5138    392.93589    1636.8631    7270.0558    119.32831    119.32831    119.32831    1609.4269            0   0.68077231 
 1366001   -548.79828    393.34602    16.902727     7277.644    119.32831    119.32831    119.32831    31.004816    467.72887   0.68077231 
Loop time of 17.104 on 6 procs for 8000 steps with 6208 atoms

Performance: 404.115 ns/day, 0.059 hours/ns, 467.726 timesteps/s
95.9% CPU use with 6 MPI tasks x no OpenMP threads

MPI task timing breakdown:
Section |  min time  |  avg time  |  max time  |%varavg| %total
---------------------------------------------------------------
Pair    | 11.143     | 11.758     | 12.463     |  14.8 | 68.75
Bond    | 0.090122   | 0.094426   | 0.09993    |   1.2 |  0.55
Neigh   | 1.7338     | 1.7347     | 1.7361     |   0.1 | 10.14
Comm    | 2.0736     | 2.8291     | 3.4121     |  30.4 | 16.54
Output  | 4.5061e-05 | 6.787e-05  | 0.00015616 |   0.0 |  0.00
Modify  | 0.43235    | 0.446      | 0.45819    |   1.5 |  2.61
Other   |            | 0.2416     |            |       |  1.41

Nlocal:        1034.67 ave        1086 max         951 min
Histogram: 1 0 0 1 0 0 1 1 0 2
Nghost:        10371.2 ave       10601 max       10163 min
Histogram: 1 2 0 0 0 0 0 2 0 1
Neighs:        77655.2 ave       83904 max       69423 min
Histogram: 1 1 0 0 1 0 0 0 1 2

Total # of neighbors = 465931
Ave neighs/atom = 75.053318
Ave special neighs/atom = 1.9793814
Neighbor list builds = 366
Dangerous builds = 0

if "${myDensity} > 1.0" then "jump SELF break"

next a
jump SELF loop
variable a loop 1000
change_box all x scale 0.95 y scale 0.95 z scale 0.95 remap
Changing box ...
  orthogonal box = (543.31905 540.33585 540.33585) to (656.68095 659.66415 659.66415)
  orthogonal box = (543.31905 543.31905 540.33585) to (656.68095 656.68095 659.66415)
  orthogonal box = (543.31905 543.31905 543.31905) to (656.68095 656.68095 656.68095)
run 8000
Per MPI rank memory allocation (min/avg/max) = 11.90 | 11.99 | 12.30 Mbytes
Step PotEng Temp Press KinEng Lx Ly Lz Pzz S/CPU Density 
 1366001    1839.0816    393.34602    1952.6212     7277.644    113.36189    113.36189    113.36189    1938.1893            0   0.79401931 
 1374001    -1046.294    387.88542    76.357798    7176.6127    113.36189    113.36189    113.36189    59.812542    411.37927   0.79401931 
Loop time of 19.4469 on 6 procs for 8000 steps with 6208 atoms

Performance: 355.430 ns/day, 0.068 hours/ns, 411.377 timesteps/s
96.3% CPU use with 6 MPI tasks x no OpenMP threads

MPI task timing breakdown:
Section |  min time  |  avg time  |  max time  |%varavg| %total
---------------------------------------------------------------
Pair    | 13.368     | 13.738     | 14.035     |   5.3 | 70.64
Bond    | 0.096957   | 0.098854   | 0.10016    |   0.3 |  0.51
Neigh   | 1.9863     | 1.9872     | 1.9887     |   0.1 | 10.22
Comm    | 2.5732     | 2.916      | 3.315      |  12.8 | 14.99
Output  | 4.7207e-05 | 6.6559e-05 | 0.0001328  |   0.0 |  0.00
Modify  | 0.44005    | 0.4467     | 0.45963    |   1.0 |  2.30
Other   |            | 0.2605     |            |       |  1.34

Nlocal:        1034.67 ave        1074 max        1002 min
Histogram: 1 0 0 3 0 0 1 0 0 1
Nghost:        11429.2 ave       11540 max       11313 min
Histogram: 1 0 1 0 1 1 0 0 1 1
Neighs:        90133.8 ave       95015 max       84938 min
Histogram: 1 0 0 1 0 2 0 1 0 1

Total # of neighbors = 540803
Ave neighs/atom = 87.113885
Ave special neighs/atom = 1.9793814
Neighbor list builds = 364
Dangerous builds = 0

if "${myDensity} > 1.0" then "jump SELF break"

next a
jump SELF loop
variable a loop 1000
change_box all x scale 0.95 y scale 0.95 z scale 0.95 remap
Changing box ...
  orthogonal box = (546.15310 543.31905 543.31905) to (653.84690 656.68095 656.68095)
  orthogonal box = (546.15310 546.15310 543.31905) to (653.84690 653.84690 656.68095)
  orthogonal box = (546.15310 546.15310 546.15310) to (653.84690 653.84690 653.84690)
run 8000
Per MPI rank memory allocation (min/avg/max) = 12.30 | 12.33 | 12.37 Mbytes
Step PotEng Temp Press KinEng Lx Ly Lz Pzz S/CPU Density 
 1374001    1663.8328    387.88542    2456.4662    7176.6127     107.6938     107.6938     107.6938    2424.2652            0   0.92610504 
 1382001   -1651.6336    394.66867    206.07589    7302.1155     107.6938     107.6938     107.6938    212.63274    367.52647   0.92610504 
Loop time of 21.7673 on 6 procs for 8000 steps with 6208 atoms

Performance: 317.541 ns/day, 0.076 hours/ns, 367.524 timesteps/s
96.3% CPU use with 6 MPI tasks x no OpenMP threads

MPI task timing breakdown:
Section |  min time  |  avg time  |  max time  |%varavg| %total
---------------------------------------------------------------
Pair    | 15.722     | 15.965     | 16.147     |   4.2 | 73.34
Bond    | 0.097595   | 0.099678   | 0.10172    |   0.5 |  0.46
Neigh   | 2.0358     | 2.0412     | 2.0604     |   0.6 |  9.38
Comm    | 2.7199     | 2.9416     | 3.2119     |  10.5 | 13.51
Output  | 4.6968e-05 | 7.0492e-05 | 0.00016809 |   0.0 |  0.00
Modify  | 0.43856    | 0.44684    | 0.46234    |   1.2 |  2.05
Other   |            | 0.2732     |            |       |  1.25

Nlocal:        1034.67 ave        1056 max        1019 min
Histogram: 2 0 1 0 0 1 1 0 0 1
Nghost:        12538.2 ave       12575 max       12474 min
Histogram: 1 0 0 0 0 2 0 1 0 2
Neighs:        105201.0 ave      108446 max      101914 min
Histogram: 1 0 1 0 1 1 0 0 1 1

Total # of neighbors = 631207
Ave neighs/atom = 101.67639
Ave special neighs/atom = 1.9793814
Neighbor list builds = 366
Dangerous builds = 0

if "${myDensity} > 1.0" then "jump SELF break"

next a
jump SELF loop
variable a loop 1000
change_box all x scale 0.95 y scale 0.95 z scale 0.95 remap
Changing box ...
  orthogonal box = (548.84545 546.15310 546.15310) to (651.15455 653.84690 653.84690)
  orthogonal box = (548.84545 548.84545 546.15310) to (651.15455 651.15455 653.84690)
  orthogonal box = (548.84545 548.84545 548.84545) to (651.15455 651.15455 651.15455)
run 8000
Per MPI rank memory allocation (min/avg/max) = 12.31 | 12.34 | 12.39 Mbytes
Step PotEng Temp Press KinEng Lx Ly Lz Pzz S/CPU Density 
 1382001     1590.831    394.66867    3211.0536    7302.1155    102.30911    102.30911    102.30911     3234.656            0    1.0801633 
 1390001   -2197.9879    394.46649    666.65285    7298.3748    102.30911    102.30911    102.30911    666.82455    318.64168    1.0801633 
Loop time of 25.1067 on 6 procs for 8000 steps with 6208 atoms

Performance: 275.305 ns/day, 0.087 hours/ns, 318.640 timesteps/s
96.4% CPU use with 6 MPI tasks x no OpenMP threads

MPI task timing breakdown:
Section |  min time  |  avg time  |  max time  |%varavg| %total
---------------------------------------------------------------
Pair    | 18.079     | 18.644     | 19.21      |   9.0 | 74.26
Bond    | 0.091394   | 0.096201   | 0.10226    |   1.2 |  0.38
Neigh   | 2.4215     | 2.4235     | 2.4259     |   0.1 |  9.65
Comm    | 2.6659     | 3.2092     | 3.7976     |  21.5 | 12.78
Output  | 4.3154e-05 | 6.5327e-05 | 0.00012779 |   0.0 |  0.00
Modify  | 0.43882    | 0.44662    | 0.46226    |   1.2 |  1.78
Other   |            | 0.2867     |            |       |  1.14

Nlocal:        1034.67 ave        1050 max        1024 min
Histogram: 3 0 0 0 0 0 1 1 0 1
Nghost:        13806.2 ave       13817 max       13796 min
Histogram: 1 0 2 0 0 0 1 1 0 1
Neighs:        122912.0 ave      125220 max      121312 min
Histogram: 2 1 0 1 0 0 0 0 0 2

Total # of neighbors = 737469
Ave neighs/atom = 118.79333
Ave special neighs/atom = 1.9793814
Neighbor list builds = 365
Dangerous builds = 0

if "${myDensity} > 1.0" then "jump SELF break"
jump SELF break

####Replicate to form slab

replicate 1 1 7
Replicating atoms ...
  orthogonal box = (548.84545 548.84545 548.84545) to (651.15455 651.15455 1265.0092)
  1 by 1 by 6 MPI processor grid
  43456 atoms
  43008 bonds
Finding 1-2 1-3 1-4 neighbors ...
  special bond factors lj:    0        1        1       
  special bond factors coul:  0        1        1       
     2 = max # of 1-2 neighbors
     6 = max # of special neighbors
  special bonds CPU = 0.001 seconds
  replicate CPU = 0.004 seconds

run 1
Per MPI rank memory allocation (min/avg/max) = 26.63 | 26.65 | 26.70 Mbytes
Step PotEng Temp Press KinEng Lx Ly Lz Pzz S/CPU Density 
 1390001   -15385.915    394.41202    666.65285    51088.623    102.30911    102.30911    716.16376    666.82455            0    1.0801633 
 1390002   -15476.969    395.02675    661.71033     51168.25    102.30911    102.30911    716.16376    664.67859    47.764588    1.0801633 
Loop time of 0.0209682 on 6 procs for 1 steps with 43456 atoms

Performance: 41.205 ns/day, 0.582 hours/ns, 47.691 timesteps/s
99.1% CPU use with 6 MPI tasks x no OpenMP threads

MPI task timing breakdown:
Section |  min time  |  avg time  |  max time  |%varavg| %total
---------------------------------------------------------------
Pair    | 0.019418   | 0.019618   | 0.019816   |   0.1 | 93.56
Bond    | 0.00015306 | 0.00015636 | 0.00015903 |   0.0 |  0.75
Neigh   | 0          | 0          | 0          |   0.0 |  0.00
Comm    | 0.00041676 | 0.00057777 | 0.00081706 |   0.0 |  2.76
Output  | 8.3923e-05 | 0.00012517 | 0.00020599 |   0.0 |  0.60
Modify  | 0.00037479 | 0.00038103 | 0.00039124 |   0.0 |  1.82
Other   |            | 0.0001096  |            |       |  0.52

Nlocal:        7242.67 ave        7255 max        7231 min
Histogram: 1 1 0 0 0 2 0 1 0 1
Nghost:        29478.8 ave       29511 max       29455 min
Histogram: 1 1 1 0 0 1 1 0 0 1
Neighs:        860399.0 ave      867166 max      854941 min
Histogram: 2 1 0 0 0 0 1 0 1 1

Total # of neighbors = 5162395
Ave neighs/atom = 118.79591
Ave special neighs/atom = 1.9793814
Neighbor list builds = 0
Dangerous builds = 0

###Delete replicated atoms

group under molecule < 129
12416 atoms in group under
group over molecule  > 192
24832 atoms in group over
group replica union under over
37248 atoms in group replica
delete_atoms group replica
WARNING: Ignoring 'compress yes' for molecular system (../delete_atoms.cpp:125)
Deleted 37248 atoms, new total = 6208

###Run simulation

fix           fixcentro all recenter INIT INIT INIT
fix           fxbal  all balance 1000 1.05 rcb

compute densidad all chunk/atom bin/1d z lower 0.01 units reduced
fix 3 all ave/chunk 1000 70 100000 densidad density/mass file den-$d-$T.profile
fix 3 all ave/chunk 1000 70 100000 densidad density/mass file den-TIA_WT-$T.profile
fix 3 all ave/chunk 1000 70 100000 densidad density/mass file den-TIA_WT-385.profile

compute  rad all gyration
variable t equal step
variable r equal c_rad
fix      radfile all print 10000 "$t $r" file rad-$d-$T.dat screen no
fix      radfile all print 10000 "$t $r" file rad-TIA_WT-$T.dat screen no
fix      radfile all print 10000 "$t $r" file rad-TIA_WT-385.dat screen no

compute	msd all msd com yes
fix	msd all ave/time 1 1 10000 c_msd[4] file mds-$d-$T.dat
fix	msd all ave/time 1 1 10000 c_msd[4] file mds-TIA_WT-$T.dat
fix	msd all ave/time 1 1 10000 c_msd[4] file mds-TIA_WT-385.dat

run 10000000
Per MPI rank memory allocation (min/avg/max) = 28.87 | 29.16 | 30.11 Mbytes
Step PotEng Temp Press KinEng Lx Ly Lz Pzz S/CPU Density 
 1390002    -1414.935    394.97941    88.018805    7307.8648    102.30911    102.30911    716.16376    88.323555            0   0.15430905 
 2000000    425.12239    390.04061    -2.364123    7216.4877    102.30911    102.30911    716.16376    -1.708627    719.69208   0.15430905 
 3000000    548.67786    387.15559   -3.5065178    7163.1094    102.30911    102.30911    716.16376   -2.2625201    822.51725   0.15430905 
 4000000    379.11312    381.83452    0.2560925    7064.6596    102.30911    102.30911    716.16376   -1.8293209    873.04377   0.15430905 
 5000000    528.78102     383.2428   -1.6955439    7090.7154    102.30911    102.30911    716.16376   -4.4194109    860.91664   0.15430905 
 6000000    432.64589    379.98934    5.1140475    7030.5201    102.30911    102.30911    716.16376    7.4442746    862.29566   0.15430905 
 7000000    591.32117    388.76957    1.7677865    7192.9711    102.30911    102.30911    716.16376    4.1150158    887.17863   0.15430905 
 8000000    533.70315    385.60236  -0.51814331    7134.3717    102.30911    102.30911    716.16376    -1.837125    941.65761   0.15430905 
 9000000    532.85771    387.80149   0.94316651    7175.0598    102.30911    102.30911    716.16376   -1.8316059     884.3054   0.15430905 
10000000    553.76988    385.58274   -3.6424587    7134.0086    102.30911    102.30911    716.16376   -1.2966452    842.78993   0.15430905 
11000000    533.93092    383.33057   -3.1846431    7092.3393    102.30911    102.30911    716.16376   -7.2975535    865.83391   0.15430905 
11390002    424.51992     382.7502   -3.4005761    7081.6014    102.30911    102.30911    716.16376   -5.3464484    853.63814   0.15430905 
Loop time of 11648.3 on 6 procs for 10000000 steps with 6208 atoms

Performance: 741.736 ns/day, 0.032 hours/ns, 858.491 timesteps/s
99.4% CPU use with 6 MPI tasks x no OpenMP threads

MPI task timing breakdown:
Section |  min time  |  avg time  |  max time  |%varavg| %total
---------------------------------------------------------------
Pair    | 5534.3     | 6833.1     | 7693.3     | 843.3 | 58.66
Bond    | 108.29     | 110.53     | 111.65     |  10.8 |  0.95
Neigh   | 1188.4     | 1196.2     | 1207.2     |  17.4 | 10.27
Comm    | 1582.5     | 2050.4     | 2790       | 890.4 | 17.60
Output  | 0.26451    | 0.27978    | 0.2936     |   1.9 |  0.00
Modify  | 803.02     | 1293.1     | 1794.3     | 989.8 | 11.10
Other   |            | 164.7      |            |       |  1.41

Nlocal:        1034.67 ave        1068 max        1005 min
Histogram: 1 0 2 1 0 0 0 0 0 2
Nghost:        5406.17 ave        6030 max        4667 min
Histogram: 1 0 0 1 1 1 0 0 0 2
Neighs:        35981.7 ave       45875 max       28245 min
Histogram: 2 1 0 0 0 0 0 2 0 1

Total # of neighbors = 215890
Ave neighs/atom = 34.776095
Ave special neighs/atom = 1.9793814
Neighbor list builds = 420888
Dangerous builds = 0

write_data data$d-$T.out
write_data dataTIA_WT-$T.out
write_data dataTIA_WT-385.out
System init for write_data ...

shell cd ..

clear

next x

jump SELF loopT

next d
Total wall time: 20:36:33
