
bond_style  harmonic
dielectric  80.0

set type 25 charge 0.75
Setting atom values ...
  0 settings made for charge
set type 27 charge -0.75
Setting atom values ...
  0 settings made for charge
set type 28 charge -0.75
Setting atom values ...
  0 settings made for charge
set type 36 charge 0.375
Setting atom values ...
  0 settings made for charge
set type 23 charge 0.75
Setting atom values ...
  0 settings made for charge

set type 5 charge 0.75
Setting atom values ...
  1 settings made for charge
set type 7 charge -0.75
Setting atom values ...
  0 settings made for charge
set type 3  charge 0.75
Setting atom values ...
  0 settings made for charge
set type 16 charge 0.375
Setting atom values ...
  0 settings made for charge
set type 8  charge -0.75
Setting atom values ...
  1 settings made for charge

bond_coeff          1     9.600     3.81
#bond_coeff          2     9.600     5.00

pair_style  hybrid/overlay wf/cut 25.0 coul/debye 0.126 0.0

pair_coeff 30 30 wf/cut 0.004751 6.45565 1 3 19.367
pair_coeff 1 1 wf/cut 0.039564 6.467950871367303 1 2 19.403852614101908
pair_coeff 1 2 wf/cut 0.068017 5.576178403526399 1 2 16.728535210579196
pair_coeff 1 3 wf/cut 0.032686 6.5677835361737795 1 2 19.70335060852134
pair_coeff 1 4 wf/cut 0.035161 6.178228033595178 1 2 18.534684100785533
pair_coeff 1 5 wf/cut 0.171515 6.643964892255349 1 2 19.93189467676605
pair_coeff 1 6 wf/cut 0.044522 5.868502140125925 1 2 17.605506420377775
pair_coeff 1 7 wf/cut 0.073172 6.14145960937047 1 2 18.424378828111408
pair_coeff 1 8 wf/cut 0.077577 6.318176525841784 1 2 18.95452957752535
pair_coeff 1 9 wf/cut 0.229375 6.590037435016079 1 2 19.770112305048237
pair_coeff 1 10 wf/cut 0.022571 6.320571545407576 1 2 18.96171463622273
pair_coeff 1 11 wf/cut 0.025281 6.483443734640188 1 2 19.450331203920562
pair_coeff 1 12 wf/cut 0.120006 6.36518785664648 1 2 19.09556356993944
pair_coeff 1 13 wf/cut 0.294931 6.755728450520449 1 2 20.267185351561345
pair_coeff 1 14 wf/cut 0.215603 6.538208522101147 1 2 19.61462556630344
pair_coeff 1 15 wf/cut 0.050582 5.938940625510648 1 2 17.816821876531947
pair_coeff 1 16 wf/cut 0.203491 6.392507281968151 1 2 19.177521845904455
pair_coeff 1 17 wf/cut 0.116706 6.188018494610175 1 2 18.564055483830522
pair_coeff 1 18 wf/cut 0.059120 6.1344640513130955 1 2 18.403392153939286
pair_coeff 1 19 wf/cut 0.054437 6.094294827619396 1 2 18.282884482858186
pair_coeff 1 20 wf/cut 0.019979 6.496393035701747 1 2 19.48917910710524
pair_coeff 1 21 wf/cut 0.033511 6.472967463905089 1 2 19.418902391715267
pair_coeff 1 22 wf/cut 0.053464 5.579884038976499 1 2 16.7396521169295
pair_coeff 1 23 wf/cut 0.028840 6.572908139010548 1 2 19.718724417031645
pair_coeff 1 24 wf/cut 0.030487 6.183085528083141 1 2 18.549256584249424
pair_coeff 1 25 wf/cut 0.126057 6.646517494086263 1 2 19.93955248225879
pair_coeff 1 26 wf/cut 0.037087 5.873266644604083 1 2 17.61979993381225
pair_coeff 1 27 wf/cut 0.057192 6.145621669676131 1 2 18.43686500902839
pair_coeff 1 28 wf/cut 0.060220 6.322430858089529 1 2 18.967292574268587
pair_coeff 1 29 wf/cut 0.166559 6.592040039094211 1 2 19.776120117282634
pair_coeff 1 30 wf/cut 0.022157 6.322886509244067 1 2 18.9686595277322
pair_coeff 1 31 wf/cut 0.023649 6.486360198534797 1 2 19.45908059560439
pair_coeff 1 32 wf/cut 0.089698 6.368425539955892 1 2 19.105276619867674
pair_coeff 1 33 wf/cut 0.212282 6.7573688868401405 1 2 20.27210666052042
pair_coeff 1 34 wf/cut 0.156918 6.5402914181442595 1 2 19.620874254432778
pair_coeff 1 35 wf/cut 0.041217 5.943583554201671 1 2 17.830750662605013
pair_coeff 1 36 wf/cut 0.148384 6.394666170151445 1 2 19.183998510454334
pair_coeff 1 37 wf/cut 0.087498 6.191219964195186 1 2 18.57365989258556
pair_coeff 1 38 wf/cut 0.047275 6.139108925912469 1 2 18.417326777737408
pair_coeff 1 39 wf/cut 0.043970 6.098946985727069 1 2 18.296840957181207
pair_coeff 1 40 wf/cut 0.019979 6.496393035701747 1 2 19.48917910710524
pair_coeff 2 2 wf/cut 0.096470 4.695110240398406 1 2 14.085330721195216
pair_coeff 2 3 wf/cut 0.061139 5.671338290828199 1 2 17.014014872484598
pair_coeff 2 4 wf/cut 0.063614 5.284424971479424 1 2 15.85327491443827
pair_coeff 2 5 wf/cut 0.199968 5.766386193227936 1 2 17.299158579683805
pair_coeff 2 6 wf/cut 0.072975 4.980134552672144 1 2 14.940403658016432
pair_coeff 2 7 wf/cut 0.101625 5.2592548053112145 1 2 15.777764415933643
pair_coeff 2 8 wf/cut 0.106030 5.436374588857539 1 2 16.30912376657262
pair_coeff 2 9 wf/cut 0.257828 5.7131654456309935 1 2 17.139496336892982
pair_coeff 2 10 wf/cut 0.051024 5.412393397897493 1 2 16.23718019369248
pair_coeff 2 11 wf/cut 0.053734 5.578930397816427 1 2 16.736791193449278
pair_coeff 2 12 wf/cut 0.148459 5.486299347261422 1 2 16.458898041784266
pair_coeff 2 13 wf/cut 0.323384 5.879238002082802 1 2 17.63771400624841
pair_coeff 2 14 wf/cut 0.244056 5.661218822883835 1 2 16.983656468651503
pair_coeff 2 15 wf/cut 0.079035 5.052524512175333 1 2 15.157573536526
pair_coeff 2 16 wf/cut 0.231944 5.515411637199979 1 2 16.54623491159994
pair_coeff 2 17 wf/cut 0.145159 5.3090163197417555 1 2 15.927048959225267
pair_coeff 2 18 wf/cut 0.087573 5.249990542761369 1 2 15.749971628284106
pair_coeff 2 19 wf/cut 0.082890 5.208722790322849 1 2 15.626168370968546
pair_coeff 2 20 wf/cut 0.048432 5.580329252471181 1 2 16.740987757413542
pair_coeff 2 21 wf/cut 0.061964 5.577215175821233 1 2 16.731645527463698
pair_coeff 2 22 wf/cut 0.081917 4.696396560631559 1 2 14.089189681894677
pair_coeff 2 23 wf/cut 0.057293 5.67211261999139 1 2 17.016337859974172
pair_coeff 2 24 wf/cut 0.058940 5.285212528563172 1 2 15.855637585689518
pair_coeff 2 25 wf/cut 0.154510 5.767769508320207 1 2 17.30330852496062
pair_coeff 2 26 wf/cut 0.065540 4.981125987510791 1 2 14.943377962532374
pair_coeff 2 27 wf/cut 0.085645 5.260651874488179 1 2 15.781955623464537
pair_coeff 2 28 wf/cut 0.088673 5.437809343618614 1 2 16.313428030855842
pair_coeff 2 29 wf/cut 0.195012 5.714358676536591 1 2 17.143076029609773
pair_coeff 2 30 wf/cut 0.050610 5.412530359493723 1 2 16.23759107848117
pair_coeff 2 31 wf/cut 0.052102 5.579325356579805 1 2 16.737976069739414
pair_coeff 2 32 wf/cut 0.118151 5.487774115196598 1 2 16.463322345589795
pair_coeff 2 33 wf/cut 0.240735 5.880303283956183 1 2 17.64090985186855
pair_coeff 2 34 wf/cut 0.185371 5.662447134978403 1 2 16.987341404935208
pair_coeff 2 35 wf/cut 0.069670 5.053695239348068 1 2 15.161085718044204
pair_coeff 2 36 wf/cut 0.176837 5.516638738971832 1 2 16.549916216915495
pair_coeff 2 37 wf/cut 0.115951 5.310437234694913 1 2 15.931311704084738
pair_coeff 2 38 wf/cut 0.075728 5.251325825579545 1 2 15.753977476738633
pair_coeff 2 39 wf/cut 0.072423 5.20997288304294 1 2 15.629918649128818
pair_coeff 2 40 wf/cut 0.048432 5.580329252471181 1 2 16.740987757413542
pair_coeff 3 3 wf/cut 0.019117 6.671340524039856 1 2 20.014021572119567
pair_coeff 3 4 wf/cut 0.028283 6.279399881910995 1 2 18.838199645732985
pair_coeff 3 5 wf/cut 0.121938 6.73819193132635 1 2 20.21457579397905
pair_coeff 3 6 wf/cut 0.037644 5.966686347623176 1 2 17.90005904286953
pair_coeff 3 7 wf/cut 0.000493 6.236987380482699 1 2 18.710962141448096
pair_coeff 3 8 wf/cut 0.000526 6.413575163938182 1 2 19.240725491814544
pair_coeff 3 9 wf/cut 0.102701 6.684083406034673 1 2 20.052250218104017
pair_coeff 3 10 wf/cut 0.015693 6.433541011383533 1 2 19.3006230341506
pair_coeff 3 11 wf/cut 0.018403 6.592557574989555 1 2 19.777672724968664
pair_coeff 3 12 wf/cut 0.113128 6.4596938105680355 1 2 19.37908143170411
pair_coeff 3 13 wf/cut 0.104796 6.849685211660051 1 2 20.549055634980153
pair_coeff 3 14 wf/cut 0.115276 6.632280360446061 1 2 19.896841081338184
pair_coeff 3 15 wf/cut 0.043704 6.036179732070119 1 2 18.10853919621036
pair_coeff 3 16 wf/cut 0.087370 6.4866030031823305 1 2 19.45980900954699
pair_coeff 3 17 wf/cut 0.109828 6.2825460057664415 1 2 18.847638017299325
pair_coeff 3 18 wf/cut 0.052242 6.2310615597122725 1 2 18.693184679136817
pair_coeff 3 19 wf/cut 0.047559 6.191153675456269 1 2 18.573461026368804
pair_coeff 3 20 wf/cut 0.013101 6.617996254538358 1 2 19.853988763615074
pair_coeff 3 21 wf/cut 0.026633 6.575236990212751 1 2 19.725710970638254
pair_coeff 3 22 wf/cut 0.046586 5.67591070475063 1 2 17.02773211425189
pair_coeff 3 23 wf/cut 0.016267 6.6786690213492745 1 2 20.036007064047823
pair_coeff 3 24 wf/cut 0.023609 6.28697050091405 1 2 18.860911502742148
pair_coeff 3 25 wf/cut 0.088471 6.7410021187479785 1 2 20.223006356243935
pair_coeff 3 26 wf/cut 0.030209 5.973496417353158 1 2 17.920489252059475
pair_coeff 3 27 wf/cut 0.000375 6.242202340571064 1 2 18.726607021713193
pair_coeff 3 28 wf/cut 0.000395 6.41884518513886 1 2 19.25653555541658
pair_coeff 3 29 wf/cut 0.087295 6.686244113621416 1 2 20.058732340864246
pair_coeff 3 30 wf/cut 0.015279 6.438064853494475 1 2 19.314194560483426
pair_coeff 3 31 wf/cut 0.016771 6.597859600272992 1 2 19.793578800818977
pair_coeff 3 32 wf/cut 0.082820 6.463434808995108 1 2 19.390304426985324
pair_coeff 3 33 wf/cut 0.089077 6.851438991432198 1 2 20.554316974296594
pair_coeff 3 34 wf/cut 0.097985 6.634536462444846 1 2 19.903609387334537
pair_coeff 3 35 wf/cut 0.034339 6.042553594266142 1 2 18.127660782798426
pair_coeff 3 36 wf/cut 0.062880 6.488951472342971 1 2 19.466854417028912
pair_coeff 3 37 wf/cut 0.080620 6.286259565568102 1 2 18.858778696704306
pair_coeff 3 38 wf/cut 0.040397 6.23694969931501 1 2 18.71084909794503
pair_coeff 3 39 wf/cut 0.037092 6.197406382364393 1 2 18.59221914709318
pair_coeff 3 40 wf/cut 0.013101 6.617996254538358 1 2 19.853988763615074
pair_coeff 4 4 wf/cut 0.030758 5.8890615748048605 1 2 17.667184724414582
pair_coeff 4 5 wf/cut 0.167112 6.352015695367313 1 2 19.056047086101938
pair_coeff 4 6 wf/cut 0.040119 5.577947754246859 1 2 16.733843262740578
pair_coeff 4 7 wf/cut 0.068769 5.849866323299111 1 2 17.549598969897332
pair_coeff 4 8 wf/cut 0.073174 6.026541387517959 1 2 18.079624162553877
pair_coeff 4 9 wf/cut 0.224972 6.298063007043266 1 2 18.894189021129797
pair_coeff 4 10 wf/cut 0.018168 6.03696547344559 1 2 18.11089642033677
pair_coeff 4 11 wf/cut 0.020878 6.198088878491606 1 2 18.594266635474817
pair_coeff 4 12 wf/cut 0.115603 6.073287961608412 1 2 18.219863884825237
pair_coeff 4 13 wf/cut 0.290527 6.463775207339586 1 2 19.39132562201876
pair_coeff 4 14 wf/cut 0.211200 6.246251077325644 1 2 18.73875323197693
pair_coeff 4 15 wf/cut 0.046179 5.648007650359314 1 2 16.94402295107794
pair_coeff 4 16 wf/cut 0.199088 6.1005286446452045 1 2 18.301585933935613
pair_coeff 4 17 wf/cut 0.112303 5.896099182190375 1 2 17.688297546571125
pair_coeff 4 18 wf/cut 0.054717 5.84319611761197 1 2 17.52958835283591
pair_coeff 4 19 wf/cut 0.050034 5.803211551983609 1 2 17.40963465595083
pair_coeff 4 20 wf/cut 0.015576 6.214617146494642 1 2 18.643851439483925
pair_coeff 4 21 wf/cut 0.029108 6.184377266229273 1 2 18.55313179868782
pair_coeff 4 22 wf/cut 0.049061 5.288433024843104 1 2 15.865299074529311
pair_coeff 4 23 wf/cut 0.024437 6.285985931141882 1 2 18.857957793425648
pair_coeff 4 24 wf/cut 0.026084 5.895181038887271 1 2 17.685543116661812
pair_coeff 4 25 wf/cut 0.121654 6.3546176961456355 1 2 19.063853088436908
pair_coeff 4 26 wf/cut 0.032684 5.583620888610048 1 2 16.75086266583014
pair_coeff 4 27 wf/cut 0.052789 5.854435916763915 1 2 17.563307750291745
pair_coeff 4 28 wf/cut 0.055817 6.031184910048361 1 2 18.093554730145083
pair_coeff 4 29 wf/cut 0.162155 6.300073473520442 1 2 18.900220420561325
pair_coeff 4 30 wf/cut 0.017754 6.038590687548953 1 2 18.115772062646858
pair_coeff 4 31 wf/cut 0.019246 6.20213243224441 1 2 18.606397296733228
pair_coeff 4 32 wf/cut 0.085295 6.076667470375622 1 2 18.230002411126865
pair_coeff 4 33 wf/cut 0.207879 6.4653998696548625 1 2 19.396199608964587
pair_coeff 4 34 wf/cut 0.152515 6.248347277402027 1 2 18.74504183220608
pair_coeff 4 35 wf/cut 0.036814 5.653400669933968 1 2 16.960202009801904
pair_coeff 4 36 wf/cut 0.143981 6.1027057764377375 1 2 18.308117329313212
pair_coeff 4 37 wf/cut 0.083095 5.899444861363162 1 2 17.698334584089487
pair_coeff 4 38 wf/cut 0.042872 5.848454222246143 1 2 17.545362666738427
pair_coeff 4 39 wf/cut 0.039567 5.808550835350359 1 2 17.425652506051076
pair_coeff 4 40 wf/cut 0.015576 6.214617146494642 1 2 18.643851439483925
pair_coeff 5 5 wf/cut 0.089916 6.839051042416954 1 2 20.51715312725086
pair_coeff 5 6 wf/cut 0.176473 6.049093128275473 1 2 18.14727938482642
pair_coeff 5 7 wf/cut 0.001522 6.329860382208001 1 2 18.989581146624005
pair_coeff 5 8 wf/cut 0.001554 6.507087894628845 1 2 19.521263683886534
pair_coeff 5 9 wf/cut 0.607820 6.786238537205683 1 2 20.358715611617047
pair_coeff 5 10 wf/cut 0.154522 6.477800731622431 1 2 19.433402194867295
pair_coeff 5 11 wf/cut 0.157232 6.644606745714045 1 2 19.933820237142136
pair_coeff 5 12 wf/cut 0.251957 6.5582801074116395 1 2 19.674840322234918
pair_coeff 5 13 wf/cut 0.691657 6.952550947859904 1 2 20.85765284357971
pair_coeff 5 14 wf/cut 0.544942 6.734244851368496 1 2 20.20273455410549
pair_coeff 5 15 wf/cut 0.182533 6.121907195991114 1 2 18.365721587973344
pair_coeff 5 16 wf/cut 0.124237 6.588371399225676 1 2 19.76511419767703
pair_coeff 5 17 wf/cut 0.248657 6.381027696653046 1 2 19.143083089959138
pair_coeff 5 18 wf/cut 0.191071 6.319850876308843 1 2 18.95955262892653
pair_coeff 5 19 wf/cut 0.186388 6.2782756347766915 1 2 18.834826904330075
pair_coeff 5 20 wf/cut 0.151930 6.644914452592528 1 2 19.934743357777585
pair_coeff 5 21 wf/cut 0.165462 6.6442230427261695 1 2 19.93266912817851
pair_coeff 5 22 wf/cut 0.185415 5.7668587075646895 1 2 17.300576122694068
pair_coeff 5 23 wf/cut 0.160791 6.738370816695987 1 2 20.21511245008796
pair_coeff 5 24 wf/cut 0.162438 6.352227758045304 1 2 19.056683274135914
pair_coeff 5 25 wf/cut 0.076528 6.839775073180529 1 2 20.519325219541585
pair_coeff 5 26 wf/cut 0.169038 6.0493803544908396 1 2 18.14814106347252
pair_coeff 5 27 wf/cut 0.001403 6.330338025744615 1 2 18.991014077233842
pair_coeff 5 28 wf/cut 0.001424 6.507609785991295 1 2 19.522829357973883
pair_coeff 5 29 wf/cut 0.516647 6.786966179847217 1 2 20.36089853954165
pair_coeff 5 30 wf/cut 0.154108 6.477855546012645 1 2 19.433566638037934
pair_coeff 5 31 wf/cut 0.155600 6.644688317632491 1 2 19.934064952897472
pair_coeff 5 32 wf/cut 0.221649 6.558922216808411 1 2 19.676766650425233
pair_coeff 5 33 wf/cut 0.587908 6.953270762564632 1 2 20.859812287693895
pair_coeff 5 34 wf/cut 0.463200 6.734965561624807 1 2 20.20489668487442
pair_coeff 5 35 wf/cut 0.173168 6.122239691611766 1 2 18.366719074835295
pair_coeff 5 36 wf/cut 0.103828 6.589083179632521 1 2 19.767249538897563
pair_coeff 5 37 wf/cut 0.219449 6.381655047319296 1 2 19.14496514195789
pair_coeff 5 38 wf/cut 0.179226 6.320242196579514 1 2 18.96072658973854
pair_coeff 5 39 wf/cut 0.175921 6.27864243896636 1 2 18.83592731689908
pair_coeff 5 40 wf/cut 0.151930 6.644914452592528 1 2 19.934743357777585
pair_coeff 6 6 wf/cut 0.049480 5.270073550243385 1 2 15.810220650730155
pair_coeff 6 7 wf/cut 0.078130 5.545103888084069 1 2 16.635311664252207
pair_coeff 6 8 wf/cut 0.082535 5.721983178129665 1 2 17.165949534388993
pair_coeff 6 9 wf/cut 0.234333 5.995374866482686 1 2 17.986124599448058
pair_coeff 6 10 wf/cut 0.027529 5.714672842433839 1 2 17.14401852730152
pair_coeff 6 11 wf/cut 0.030239 5.879183169613761 1 2 17.637549508841282
pair_coeff 6 12 wf/cut 0.124964 5.769878425481944 1 2 17.30963527644583
pair_coeff 6 13 wf/cut 0.299889 6.1612197345718664 1 2 18.4836592037156
pair_coeff 6 14 wf/cut 0.220561 5.943524169558512 1 2 17.830572508675537
pair_coeff 6 15 wf/cut 0.055540 5.341186580911172 1 2 16.023559742733518
pair_coeff 6 16 wf/cut 0.208449 5.797765867232053 1 2 17.393297601696162
pair_coeff 6 17 wf/cut 0.121665 5.592676667454632 1 2 16.778030002363895
pair_coeff 6 18 wf/cut 0.064078 5.537383848868321 1 2 16.612151546604963
pair_coeff 6 19 wf/cut 0.059395 5.496867679432823 1 2 16.490603038298467
pair_coeff 6 20 wf/cut 0.024937 5.887264113119765 1 2 17.661792339359295
pair_coeff 6 21 wf/cut 0.038469 5.872091702440819 1 2 17.616275107322455
pair_coeff 6 22 wf/cut 0.058422 4.983057318967985 1 2 14.949171956903955
pair_coeff 6 23 wf/cut 0.033798 5.970212624670237 1 2 17.91063787401071
pair_coeff 6 24 wf/cut 0.035445 5.581322386503443 1 2 16.743967159510326
pair_coeff 6 25 wf/cut 0.131015 6.051283655448215 1 2 18.153850966344642
pair_coeff 6 26 wf/cut 0.042046 5.273529178305013 1 2 15.82058753491504
pair_coeff 6 27 wf/cut 0.062150 5.548382201124551 1 2 16.645146603373654
pair_coeff 6 28 wf/cut 0.065178 5.725365872076537 1 2 17.17609761622961
pair_coeff 6 29 wf/cut 0.171517 5.997120040197383 1 2 17.991360120592148
pair_coeff 6 30 wf/cut 0.027116 5.716115591130418 1 2 17.148346773391253
pair_coeff 6 31 wf/cut 0.028607 5.881066148485684 1 2 17.643198445457053
pair_coeff 6 32 wf/cut 0.094656 5.77257425641905 1 2 17.317722769257152
pair_coeff 6 33 wf/cut 0.217240 6.16266774871136 1 2 18.48800324613408
pair_coeff 6 34 wf/cut 0.161876 5.945332519051 1 2 17.835997557153
pair_coeff 6 35 wf/cut 0.046175 5.344636755005952 1 2 16.03391026501786
pair_coeff 6 36 wf/cut 0.153342 5.799630893236802 1 2 17.398892679710407
pair_coeff 6 37 wf/cut 0.092457 5.595329366190724 1 2 16.785988098572172
pair_coeff 6 38 wf/cut 0.052233 5.540935423926066 1 2 16.6228062717782
pair_coeff 6 39 wf/cut 0.048928 5.50037559161048 1 2 16.50112677483144
pair_coeff 6 40 wf/cut 0.024937 5.887264113119765 1 2 17.661792339359295
pair_coeff 7 7 wf/cut 0.079096 5.823521721060312 1 2 17.470565163180936
pair_coeff 7 8 wf/cut 0.082359 6.000582237524121 1 2 18.001746712572363
pair_coeff 7 9 wf/cut 0.262983 6.276473791430636 1 2 18.829421374291908
pair_coeff 7 10 wf/cut 0.056178 5.978735433494051 1 2 17.93620630048215
pair_coeff 7 11 wf/cut 0.058888 6.145089275635634 1 2 18.4352678269069
pair_coeff 7 12 wf/cut 0.153614 6.0500403862929435 1 2 18.150121158878832
pair_coeff 7 13 wf/cut 0.328538 6.4424403069543335 1 2 19.327320920863002
pair_coeff 7 14 wf/cut 0.249211 6.224557346027278 1 2 18.673672038081833
pair_coeff 7 15 wf/cut 0.084189 5.617298771179795 1 2 16.851896313539385
pair_coeff 7 16 wf/cut 0.001758 6.078759471752929 1 2 18.236278415258788
pair_coeff 7 17 wf/cut 0.150314 5.872796196825872 1 2 17.618388590477615
pair_coeff 7 18 wf/cut 0.092728 5.81454574012806 1 2 17.44363722038418
pair_coeff 7 19 wf/cut 0.088045 5.773404302618334 1 2 17.320212907855
pair_coeff 7 20 wf/cut 0.053587 6.146988238119009 1 2 18.44096471435703
pair_coeff 7 21 wf/cut 0.067118 6.142810853550669 1 2 18.428432560652006
pair_coeff 7 22 wf/cut 0.087071 5.260822534908925 1 2 15.782467604726776
pair_coeff 7 23 wf/cut 0.062448 6.238009317192061 1 2 18.714027951576185
pair_coeff 7 24 wf/cut 0.064094 5.850906179325341 1 2 17.552718537976023
pair_coeff 7 25 wf/cut 0.159665 6.331479448731908 1 2 18.994438346195725
pair_coeff 7 26 wf/cut 0.070695 5.546505225276659 1 2 16.639515675829976
pair_coeff 7 27 wf/cut 0.067258 5.825264832984326 1 2 17.47579449895298
pair_coeff 7 28 wf/cut 0.069297 6.002427424339147 1 2 18.00728227301744
pair_coeff 7 29 wf/cut 0.200166 6.277866750279897 1 2 18.83360025083969
pair_coeff 7 30 wf/cut 0.055765 5.978921905643417 1 2 17.93676571693025
pair_coeff 7 31 wf/cut 0.057257 6.145621669676131 1 2 18.43686500902839
pair_coeff 7 32 wf/cut 0.123306 6.051811079871612 1 2 18.155433239614837
pair_coeff 7 33 wf/cut 0.245890 6.4436539809330755 1 2 19.330961942799227
pair_coeff 7 34 wf/cut 0.190526 6.225980124267849 1 2 18.677940372803548
pair_coeff 7 35 wf/cut 0.074825 5.6188072088999945 1 2 16.856421626699984
pair_coeff 7 36 wf/cut 0.001350 6.080187764149639 1 2 18.24056329244892
pair_coeff 7 37 wf/cut 0.121106 5.874523045623452 1 2 17.623569136870355
pair_coeff 7 38 wf/cut 0.080883 5.816239431041905 1 2 17.448718293125715
pair_coeff 7 39 wf/cut 0.077578 5.775001596638995 1 2 17.325004789916985
pair_coeff 7 40 wf/cut 0.053587 6.146988238119009 1 2 18.44096471435703
pair_coeff 8 8 wf/cut 0.085622 6.177670315650897 1 2 18.533010946952693
pair_coeff 8 9 wf/cut 0.267388 6.453698205558216 1 2 19.36109461667465
pair_coeff 8 10 wf/cut 0.060583 6.155038804583549 1 2 18.46511641375065
pair_coeff 8 11 wf/cut 0.063293 6.321457293122011 1 2 18.964371879366034
pair_coeff 8 12 wf/cut 0.158019 6.22721384211578 1 2 18.681641526347338
pair_coeff 8 13 wf/cut 0.332943 6.61969178186508 1 2 19.85907534559524
pair_coeff 8 14 wf/cut 0.253616 6.401798946045327 1 2 19.205396838135982
pair_coeff 8 15 wf/cut 0.088594 5.794219764312674 1 2 17.382659292938023
pair_coeff 8 16 wf/cut 0.001791 6.2560007029022255 1 2 18.768002108706675
pair_coeff 8 17 wf/cut 0.154719 6.049988923928926 1 2 18.14996677178678
pair_coeff 8 18 wf/cut 0.097133 5.991524845146615 1 2 17.974574535439846
pair_coeff 8 19 wf/cut 0.092450 5.950364732175825 1 2 17.851094196527477
pair_coeff 8 20 wf/cut 0.057992 6.323325627682127 1 2 18.96997688304638
pair_coeff 8 21 wf/cut 0.071523 6.319407907453407 1 2 18.95822372236022
pair_coeff 8 22 wf/cut 0.091476 5.437918514751647 1 2 16.313755544254942
pair_coeff 8 23 wf/cut 0.066853 6.414637503765215 1 2 19.243912511295648
pair_coeff 8 24 wf/cut 0.068499 6.027610728824833 1 2 18.082832186474498
pair_coeff 8 25 wf/cut 0.164070 6.50867097271995 1 2 19.52601291815985
pair_coeff 8 26 wf/cut 0.075100 5.723271374681476 1 2 17.16981412404443
pair_coeff 8 27 wf/cut 0.095204 6.002225923033709 1 2 18.006677769101127
pair_coeff 8 28 wf/cut 0.072560 6.179413824459994 1 2 18.538241473379983
pair_coeff 8 29 wf/cut 0.204571 6.455074051412765 1 2 19.365222154238296
pair_coeff 8 30 wf/cut 0.060170 6.155372367938502 1 2 18.466117103815506
pair_coeff 8 31 wf/cut 0.061662 6.321931368367982 1 2 18.965794105103946
pair_coeff 8 32 wf/cut 0.127711 6.228922014398231 1 2 18.686766043194694
pair_coeff 8 33 wf/cut 0.250295 6.620903112987423 1 2 19.86270933896227
pair_coeff 8 34 wf/cut 0.194931 6.403201712664134 1 2 19.2096051379924
pair_coeff 8 35 wf/cut 0.079230 5.795615810910755 1 2 17.386847432732267
pair_coeff 8 36 wf/cut 0.001379 6.257425310960982 1 2 18.772275932882945
pair_coeff 8 37 wf/cut 0.125511 6.051653861598323 1 2 18.154961584794968
pair_coeff 8 38 wf/cut 0.085288 5.993104375441103 1 2 17.97931312632331
pair_coeff 8 39 wf/cut 0.081983 5.951847773872721 1 2 17.855543321618164
pair_coeff 8 40 wf/cut 0.057992 6.323325627682127 1 2 18.96997688304638
pair_coeff 9 9 wf/cut 0.419186 6.733634028253079 1 2 20.20090208475924
pair_coeff 9 10 wf/cut 0.212382 6.423549039740656 1 2 19.270647119221966
pair_coeff 9 11 wf/cut 0.215092 6.590387900103195 1 2 19.771163700309586
pair_coeff 9 12 wf/cut 0.309817 6.50524897581083 1 2 19.51574692743249
pair_coeff 9 13 wf/cut 0.484741 6.900050363131952 1 2 20.700151089395856
pair_coeff 9 14 wf/cut 0.405414 6.6815889712242855 1 2 20.044766913672856
pair_coeff 9 15 wf/cut 0.240393 6.068280818635755 1 2 18.204842455907265
pair_coeff 9 16 wf/cut 0.393302 6.535691224609458 1 2 19.607073673828374
pair_coeff 9 17 wf/cut 0.306517 6.327982683666391 1 2 18.98394805099917
pair_coeff 9 18 wf/cut 0.248931 6.266295198960733 1 2 18.798885596882197
pair_coeff 9 19 wf/cut 0.244248 6.2246507773507185 1 2 18.673952332052156
pair_coeff 9 20 wf/cut 0.209790 6.5905505017289965 1 2 19.771651505186988
pair_coeff 9 21 wf/cut 0.223322 6.590180270116687 1 2 19.770540810350063
pair_coeff 9 22 wf/cut 0.243275 5.713450024075365 1 2 17.140350072226095
pair_coeff 9 23 wf/cut 0.218651 6.6841805825849985 1 2 20.052541747754994
pair_coeff 9 24 wf/cut 0.220298 6.298178954636986 1 2 18.894536863910957
pair_coeff 9 25 wf/cut 0.315868 6.786739795335731 1 2 20.360219386007195
pair_coeff 9 26 wf/cut 0.226898 5.99553560612189 1 2 17.98660681836567
pair_coeff 9 27 wf/cut 0.247003 6.276768673597067 1 2 18.8303060207912
pair_coeff 9 28 wf/cut 0.250031 6.454011505099358 1 2 19.362034515298074
pair_coeff 9 29 wf/cut 0.356369 6.734156486173098 1 2 20.202469458519293
pair_coeff 9 30 wf/cut 0.211968 6.4235779793345555 1 2 19.270733938003666
pair_coeff 9 31 wf/cut 0.213460 6.590431338464252 1 2 19.771294015392755
pair_coeff 9 32 wf/cut 0.279509 6.505661229041637 1 2 19.516983687124913
pair_coeff 9 33 wf/cut 0.402093 6.900589936537501 1 2 20.701769809612504
pair_coeff 9 34 wf/cut 0.346729 6.682106650582579 1 2 20.046319951747737
pair_coeff 9 35 wf/cut 0.231028 6.06846960743136 1 2 18.20540882229408
pair_coeff 9 36 wf/cut 0.338195 6.536191669581551 1 2 19.60857500874465
pair_coeff 9 37 wf/cut 0.277309 6.328383771538186 1 2 18.98515131461456
pair_coeff 9 38 wf/cut 0.237086 6.266521616565618 1 2 18.799564849696853
pair_coeff 9 39 wf/cut 0.233781 6.224860927463627 1 2 18.674582782390882
pair_coeff 9 40 wf/cut 0.209790 6.5905505017289965 1 2 19.771651505186988
pair_coeff 10 10 wf/cut 0.005578 6.265999286288815 1 2 18.797997858866445
pair_coeff 10 11 wf/cut 0.008288 6.390932891994093 1 2 19.17279867598228
pair_coeff 10 12 wf/cut 0.103013 6.199729734496916 1 2 18.59918920349075
pair_coeff 10 13 wf/cut 0.277937 6.589117480615403 1 2 19.76735244184621
pair_coeff 10 14 wf/cut 0.198610 6.371783619045257 1 2 19.11535085713577
pair_coeff 10 15 wf/cut 0.033589 5.781664862063682 1 2 17.344994586191046
pair_coeff 10 16 wf/cut 0.186498 6.226104236834126 1 2 18.67831271050238
pair_coeff 10 17 wf/cut 0.099713 6.022605657483588 1 2 18.067816972450764
pair_coeff 10 18 wf/cut 0.042127 5.974331431598945 1 2 17.922994294796837
pair_coeff 10 19 wf/cut 0.037444 5.935671447441882 1 2 17.807014342325644
pair_coeff 10 21 wf/cut 0.016518 6.336783382464571 1 2 19.010350147393712
pair_coeff 10 22 wf/cut 0.036471 5.418375566526451 1 2 16.255126699579353
pair_coeff 10 23 wf/cut 0.011847 6.452549354094189 1 2 19.357648062282568
pair_coeff 10 24 wf/cut 0.013494 6.0532242372044625 1 2 18.15967271161339
pair_coeff 10 25 wf/cut 0.109064 6.480992623201166 1 2 19.442977869603496
pair_coeff 10 26 wf/cut 0.020094 5.727883796640076 1 2 17.18365138992023
pair_coeff 10 27 wf/cut 0.040199 5.986137211233324 1 2 17.958411633699974
pair_coeff 10 28 wf/cut 0.043227 6.162354266488605 1 2 18.487062799465814
pair_coeff 10 29 wf/cut 0.149565 6.425899535640867 1 2 19.277698606922602
pair_coeff 10 30 wf/cut 0.005164 6.279450553510229 1 2 18.838351660530687
pair_coeff 10 31 wf/cut 0.006656 6.414806714205564 1 2 19.24442014261669
pair_coeff 10 32 wf/cut 0.072705 6.20424895331838 1 2 18.61274685995514
pair_coeff 10 33 wf/cut 0.195289 6.590957221363035 1 2 19.772871664089106
pair_coeff 10 34 wf/cut 0.139925 6.374256698313246 1 2 19.12277009493974
pair_coeff 10 35 wf/cut 0.024224 5.79281450588842 1 2 17.37844351766526
pair_coeff 10 36 wf/cut 0.131391 6.228661475252712 1 2 18.685984425758136
pair_coeff 10 37 wf/cut 0.070505 6.027117316392745 1 2 18.081351949178234
pair_coeff 10 38 wf/cut 0.030282 5.983977483837185 1 2 17.951932451511553
pair_coeff 10 39 wf/cut 0.026977 5.94607610198081 1 2 17.83822830594243
pair_coeff 11 11 wf/cut 0.010998 6.53407242179841 1 2 19.60221726539523
pair_coeff 11 12 wf/cut 0.105723 6.366490684329992 1 2 19.099472052989977
pair_coeff 11 13 wf/cut 0.280647 6.755935225417062 1 2 20.267805676251186
pair_coeff 11 14 wf/cut 0.201320 6.538603519887749 1 2 19.615810559663245
pair_coeff 11 15 wf/cut 0.036299 5.946968662780402 1 2 17.840905988341206
pair_coeff 11 16 wf/cut 0.189208 6.392942886970462 1 2 19.178828660911385
pair_coeff 11 17 wf/cut 0.102423 6.189364574070181 1 2 18.56809372221054
pair_coeff 11 18 wf/cut 0.044837 6.1402119935661545 1 2 18.420635980698464
pair_coeff 11 19 wf/cut 0.040154 6.101247830628814 1 2 18.30374349188644
pair_coeff 11 20 wf/cut 0.005696 6.607723261980873 1 2 19.823169785942618
pair_coeff 11 21 wf/cut 0.019228 6.496393035701747 1 2 19.48917910710524
pair_coeff 11 22 wf/cut 0.039181 5.584501642231329 1 2 16.753504926693985
pair_coeff 11 23 wf/cut 0.014557 6.60658239133453 1 2 19.819747174003588
pair_coeff 11 24 wf/cut 0.016204 6.210508609486856 1 2 18.631525828460568
pair_coeff 11 25 wf/cut 0.111774 6.647740379710509 1 2 19.943221139131527
pair_coeff 11 26 wf/cut 0.022804 5.890170182090268 1 2 17.670510546270805
pair_coeff 11 27 wf/cut 0.042909 6.151889183567281 1 2 18.455667550701843
pair_coeff 11 28 wf/cut 0.045937 6.3282208238107795 1 2 18.984662471432337
pair_coeff 11 29 wf/cut 0.152275 6.5927216895129135 1 2 19.77816506853874
pair_coeff 11 30 wf/cut 0.007874 6.397951767513159 1 2 19.193855302539475
pair_coeff 11 31 wf/cut 0.009366 6.548412328573101 1 2 19.645236985719304
pair_coeff 11 32 wf/cut 0.075415 6.370842118401069 1 2 19.112526355203208
pair_coeff 11 33 wf/cut 0.197999 6.75777413374384 1 2 20.27332240123152
pair_coeff 11 34 wf/cut 0.142635 6.541054552668633 1 2 19.623163658005897
pair_coeff 11 35 wf/cut 0.026934 5.956563720651988 1 2 17.869691161955963
pair_coeff 11 36 wf/cut 0.134101 6.395473237725452 1 2 19.186419713176356
pair_coeff 11 37 wf/cut 0.073215 6.193703302501737 1 2 18.58110990750521
pair_coeff 11 38 wf/cut 0.032992 6.148785435376327 1 2 18.446356306128983
pair_coeff 11 39 wf/cut 0.029687 6.110345071454451 1 2 18.331035214363354
pair_coeff 11 40 wf/cut 0.005696 6.607723261980873 1 2 19.823169785942618
pair_coeff 12 12 wf/cut 0.200448 6.277850874229409 1 2 18.833552622688227
pair_coeff 12 13 wf/cut 0.375372 6.671405311072043 1 2 20.01421593321613
pair_coeff 12 14 wf/cut 0.296045 6.4532756440329795 1 2 19.35982693209894
pair_coeff 12 15 wf/cut 0.131024 5.84255485528308 1 2 17.52766456584924
pair_coeff 12 16 wf/cut 0.283933 6.307431677259977 1 2 18.92229503177993
pair_coeff 12 17 wf/cut 0.197148 6.100591694847331 1 2 18.301775084541994
pair_coeff 12 18 wf/cut 0.139562 6.040345112977554 1 2 18.12103533893266
pair_coeff 12 19 wf/cut 0.134879 5.998852825433778 1 2 17.99655847630133
pair_coeff 12 20 wf/cut 0.100421 6.367152767929573 1 2 19.101458303788718
pair_coeff 12 21 wf/cut 0.113953 6.365699666568734 1 2 19.0970989997062
pair_coeff 12 22 wf/cut 0.133906 5.487109605448974 1 2 16.46132881634692
pair_coeff 12 23 wf/cut 0.109282 6.460110665288058 1 2 19.380331995864175
pair_coeff 12 24 wf/cut 0.110929 6.07371622854753 1 2 18.22114868564259
pair_coeff 12 25 wf/cut 0.206499 6.559327404195954 1 2 19.67798221258786
pair_coeff 12 26 wf/cut 0.117529 5.770434344200525 1 2 17.311303032601575
pair_coeff 12 27 wf/cut 0.137634 6.050878049577443 1 2 18.15263414873233
pair_coeff 12 28 wf/cut 0.140662 6.22811906216779 1 2 18.68435718650337
pair_coeff 12 29 wf/cut 0.247000 6.506235094735004 1 2 19.518705284205012
pair_coeff 12 30 wf/cut 0.102599 6.199847722340906 1 2 18.59954316702272
pair_coeff 12 31 wf/cut 0.104091 6.366663725733202 1 2 19.099991177199605
pair_coeff 12 32 wf/cut 0.170140 6.278875223812024 1 2 18.836625671436074
pair_coeff 12 33 wf/cut 0.292724 6.6723319742793255 1 2 20.016995922837978
pair_coeff 12 34 wf/cut 0.237360 6.454265231889239 1 2 19.362795695667717
pair_coeff 12 35 wf/cut 0.121659 5.8431832590102974 1 2 17.529549777030894
pair_coeff 12 36 wf/cut 0.228826 6.308421039847022 1 2 18.925263119541064
pair_coeff 12 37 wf/cut 0.167940 6.10158175427316 1 2 18.30474526281948
pair_coeff 12 38 wf/cut 0.127717 6.041063379946771 1 2 18.123190139840315
pair_coeff 12 39 wf/cut 0.124412 5.999536872422517 1 2 17.998610617267552
pair_coeff 12 40 wf/cut 0.100421 6.367152767929573 1 2 19.101458303788718
pair_coeff 13 13 wf/cut 0.550297 7.066547961746265 1 2 21.199643885238793
pair_coeff 13 14 wf/cut 0.470970 6.84798437757724 1 2 20.54395313273172
pair_coeff 13 15 wf/cut 0.305948 6.234139720557474 1 2 18.702419161672424
pair_coeff 13 16 wf/cut 0.458857 6.702091518082294 1 2 20.10627455424688
pair_coeff 13 17 wf/cut 0.372073 6.494164476750084 1 2 19.48249343025025
pair_coeff 13 18 wf/cut 0.314487 6.432174788842087 1 2 19.29652436652626
pair_coeff 13 19 wf/cut 0.309804 6.390531854157171 1 2 19.171595562471513
pair_coeff 13 20 wf/cut 0.275346 6.756032732095156 1 2 20.268098196285468
pair_coeff 13 21 wf/cut 0.288877 6.755817014102551 1 2 20.267451042307652
pair_coeff 13 22 wf/cut 0.308830 5.879425000161095 1 2 17.638275000483283
pair_coeff 13 23 wf/cut 0.284207 6.8497445004881925 1 2 20.549233501464578
pair_coeff 13 24 wf/cut 0.285853 6.4638463520895115 1 2 19.391539056268535
pair_coeff 13 25 wf/cut 0.381424 6.952910842994874 1 2 20.85873252898462
pair_coeff 13 26 wf/cut 0.292454 6.1613130283141055 1 2 18.483939084942318
pair_coeff 13 27 wf/cut 0.312558 6.442631932062835 1 2 19.327895796188507
pair_coeff 13 28 wf/cut 0.315587 6.619890395721167 1 2 19.8596711871635
pair_coeff 13 29 wf/cut 0.421925 6.900441239237516 1 2 20.701323717712548
pair_coeff 13 30 wf/cut 0.277524 6.589134834507833 1 2 19.7674045035235
pair_coeff 13 31 wf/cut 0.279016 6.755970194682537 1 2 20.267910584047613
pair_coeff 13 32 wf/cut 0.345065 6.671688068448729 1 2 20.015064205346185
pair_coeff 13 33 wf/cut 0.467649 7.066966231238362 1 2 21.200898693715086
pair_coeff 13 34 wf/cut 0.412285 6.848368288265007 1 2 20.54510486479502
pair_coeff 13 35 wf/cut 0.296584 6.23425905911194 1 2 18.70277717733582
pair_coeff 13 36 wf/cut 0.403751 6.702459807412386 1 2 20.10737942223716
pair_coeff 13 37 wf/cut 0.342865 6.494438889291505 1 2 19.483316667874515
pair_coeff 13 38 wf/cut 0.302642 6.4323262444775215 1 2 19.296978733432564
pair_coeff 13 39 wf/cut 0.299337 6.3906653903753785 1 2 19.171996171126136
pair_coeff 13 40 wf/cut 0.275346 6.756032732095156 1 2 20.268098196285468
pair_coeff 14 14 wf/cut 0.391642 6.629549396410893 1 2 19.88864818923268
pair_coeff 14 15 wf/cut 0.226621 6.016400811210637 1 2 18.049202433631912
pair_coeff 14 16 wf/cut 0.379530 6.483674128071082 1 2 19.451022384213246
pair_coeff 14 17 wf/cut 0.292745 6.276026354822916 1 2 18.828079064468746
pair_coeff 14 18 wf/cut 0.235159 6.2144055979415755 1 2 18.643216793824728
pair_coeff 14 19 wf/cut 0.230476 6.172787382997035 1 2 18.518362148991105
pair_coeff 14 20 wf/cut 0.196018 6.538787910119839 1 2 19.616363730359517
pair_coeff 14 21 wf/cut 0.209550 6.538369107168012 1 2 19.615107321504034
pair_coeff 14 22 wf/cut 0.229503 5.661533193978743 1 2 16.98459958193623
pair_coeff 14 23 wf/cut 0.204879 6.632390006238709 1 2 19.89717001871613
pair_coeff 14 24 wf/cut 0.206526 6.246381672050424 1 2 18.73914501615127
pair_coeff 14 25 wf/cut 0.302096 6.734778137463742 1 2 20.204334412391226
pair_coeff 14 26 wf/cut 0.213126 5.94370434405314 1 2 17.831113032159422
pair_coeff 14 27 wf/cut 0.233231 6.2248725061501835 1 2 18.67461751845055
pair_coeff 14 28 wf/cut 0.236259 6.402145618033878 1 2 19.206436854101636
pair_coeff 14 29 wf/cut 0.342598 6.6821466956694 1 2 20.0464400870082
pair_coeff 14 30 wf/cut 0.198196 6.3718164337361864 1 2 19.11544930120856
pair_coeff 14 31 wf/cut 0.199688 6.538652708676239 1 2 19.61595812602872
pair_coeff 14 32 wf/cut 0.265737 6.453725824442914 1 2 19.361177473328745
pair_coeff 14 33 wf/cut 0.388321 6.848555261309869 1 2 20.545665783929607
pair_coeff 14 34 wf/cut 0.332957 6.630097176272377 1 2 19.89029152881713
pair_coeff 14 35 wf/cut 0.217256 6.0166118728379825 1 2 18.049835618513946
pair_coeff 14 36 wf/cut 0.324423 6.484210545760694 1 2 19.45263163728208
pair_coeff 14 37 wf/cut 0.263537 6.276464594313065 1 2 18.829393782939196
pair_coeff 14 38 wf/cut 0.223314 6.2146578822218475 1 2 18.643973646665543
pair_coeff 14 39 wf/cut 0.220009 6.173021960210248 1 2 18.51906588063074
pair_coeff 14 40 wf/cut 0.196018 6.538787910119839 1 2 19.616363730359517
pair_coeff 15 15 wf/cut 0.061600 5.412669704115792 1 2 16.238009112347374
pair_coeff 15 16 wf/cut 0.214509 5.870633388669294 1 2 17.61190016600788
pair_coeff 15 17 wf/cut 0.127724 5.665328065098679 1 2 16.99598419529604
pair_coeff 15 18 wf/cut 0.070138 5.60931576883087 1 2 16.82794730649261
pair_coeff 15 19 wf/cut 0.065455 5.568478936337624 1 2 16.705436809012873
pair_coeff 15 20 wf/cut 0.030997 5.95253426830798 1 2 17.857602804923943
pair_coeff 15 21 wf/cut 0.044529 5.941730116730399 1 2 17.8251903501912
pair_coeff 15 22 wf/cut 0.064482 5.055066526249052 1 2 15.165199578747156
pair_coeff 15 23 wf/cut 0.039858 6.0388189375203165 1 2 18.116456812560948
pair_coeff 15 24 wf/cut 0.041505 5.650569731939204 1 2 16.951709195817614
pair_coeff 15 25 wf/cut 0.137075 6.123955851741878 1 2 18.371867555225634
pair_coeff 15 26 wf/cut 0.048105 5.343933138992498 1 2 16.031799416977496
pair_coeff 15 27 wf/cut 0.068210 5.620115241697351 1 2 16.860345725092053
pair_coeff 15 28 wf/cut 0.071238 5.79714638380999 1 2 17.39143915142997
pair_coeff 15 29 wf/cut 0.177576 6.069943102760143 1 2 18.20982930828043
pair_coeff 15 30 wf/cut 0.033175 5.7826589372196375 1 2 17.347976811658913
pair_coeff 15 31 wf/cut 0.034667 5.948302390882524 1 2 17.84490717264757
pair_coeff 15 32 wf/cut 0.100716 5.845003436795657 1 2 17.53501031038697
pair_coeff 15 33 wf/cut 0.223300 6.235536027214636 1 2 18.706608081643907
pair_coeff 15 34 wf/cut 0.167936 6.018117533790267 1 2 18.054352601370802
pair_coeff 15 35 wf/cut 0.052235 5.415473890209146 1 2 16.246421670627438
pair_coeff 15 36 wf/cut 0.159402 5.872398100194439 1 2 17.617194300583318
pair_coeff 15 37 wf/cut 0.098516 5.667732143982081 1 2 17.003196431946243
pair_coeff 15 38 wf/cut 0.058293 5.612162941341123 1 2 16.83648882402337
pair_coeff 15 39 wf/cut 0.054988 5.571364187563539 1 2 16.714092562690617
pair_coeff 15 40 wf/cut 0.030997 5.95253426830798 1 2 17.857602804923943
pair_coeff 16 16 wf/cut 0.027216 6.337782403912046 1 2 19.01334721173614
pair_coeff 16 17 wf/cut 0.280633 6.130180422228775 1 2 18.390541266686323
pair_coeff 16 18 wf/cut 0.223047 6.068649252074198 1 2 18.205947756222592
pair_coeff 16 19 wf/cut 0.218364 6.027019005823624 1 2 18.081057017470872
pair_coeff 16 20 wf/cut 0.183906 6.393147480752069 1 2 19.179442442256207
pair_coeff 16 21 wf/cut 0.197438 6.392683938124808 1 2 19.178051814374424
pair_coeff 16 22 wf/cut 0.217391 5.515750877499212 1 2 16.547252632497635
pair_coeff 16 23 wf/cut 0.192767 6.486724075272986 1 2 19.46017222581896
pair_coeff 16 24 wf/cut 0.194414 6.100672500483568 1 2 18.302017501450702
pair_coeff 16 25 wf/cut 0.289984 6.588935233441612 1 2 19.766805700324838
pair_coeff 16 26 wf/cut 0.201014 5.79796325726322 1 2 17.39388977178966
pair_coeff 16 27 wf/cut 0.221118 6.0791010484529915 1 2 18.237303145358975
pair_coeff 16 28 wf/cut 0.224147 6.256376087421608 1 2 18.769128262264825
pair_coeff 16 29 wf/cut 0.330485 6.536274979404401 1 2 19.608824938213203
pair_coeff 16 30 wf/cut 0.186084 6.226140636452508 1 2 18.678421909357525
pair_coeff 16 31 wf/cut 0.187576 6.392997387325535 1 2 19.178992161976602
pair_coeff 16 32 wf/cut 0.253625 6.307912958718467 1 2 18.9237388761554
pair_coeff 16 33 wf/cut 0.376209 6.702684222295407 1 2 20.10805266688622
pair_coeff 16 34 wf/cut 0.320845 6.484248553549719 1 2 19.452745660649157
pair_coeff 16 35 wf/cut 0.205144 5.870864049052838 1 2 17.612592147158516
pair_coeff 16 36 wf/cut 0.023134 6.338345846056568 1 2 19.015037538169704
pair_coeff 16 37 wf/cut 0.251425 6.130649043241044 1 2 18.391947129723132
pair_coeff 16 38 wf/cut 0.211202 6.0689241564117395 1 2 18.20677246923522
pair_coeff 16 39 wf/cut 0.207897 6.027275074473145 1 2 18.081825223419436
pair_coeff 16 40 wf/cut 0.183906 6.393147480752069 1 2 19.179442442256207
pair_coeff 17 17 wf/cut 0.193849 5.9233491242788805 1 2 17.770047372836643
pair_coeff 17 18 wf/cut 0.136263 5.8630821184928195 1 2 17.58924635547846
pair_coeff 17 19 wf/cut 0.131580 5.821644218417775 1 2 17.464932655253325
pair_coeff 17 20 wf/cut 0.097122 6.1899864646586105 1 2 18.569959393975832
pair_coeff 17 21 wf/cut 0.110653 6.188546099325202 1 2 18.565638297975607
pair_coeff 17 22 wf/cut 0.130606 5.30983190747035 1 2 15.929495722411051
pair_coeff 17 23 wf/cut 0.105983 6.282921319282791 1 2 18.848763957848373
pair_coeff 17 24 wf/cut 0.107629 5.896489952968157 1 2 17.68946985890447
pair_coeff 17 25 wf/cut 0.203200 6.382089400238762 1 2 19.146268200716285
pair_coeff 17 26 wf/cut 0.114230 5.59320394576633 1 2 16.77961183729899
pair_coeff 17 27 wf/cut 0.134334 5.873649240456693 1 2 17.62094772137008
pair_coeff 17 28 wf/cut 0.137363 6.050910374214647 1 2 18.152731122643942
pair_coeff 17 29 wf/cut 0.243701 6.328963417719822 1 2 18.986890253159466
pair_coeff 17 30 wf/cut 0.099300 6.022666584916778 1 2 18.067999754750335
pair_coeff 17 31 wf/cut 0.100792 6.189544117007458 1 2 18.568632351022373
pair_coeff 17 32 wf/cut 0.166841 6.101625831837799 1 2 18.304877495513395
pair_coeff 17 33 wf/cut 0.289424 6.495083547619462 1 2 19.485250642858386
pair_coeff 17 34 wf/cut 0.234061 6.277022750655092 1 2 18.831068251965277
pair_coeff 17 35 wf/cut 0.118359 5.665971807159278 1 2 16.997915421477835
pair_coeff 17 36 wf/cut 0.225527 6.131165252735328 1 2 18.393495758205983
pair_coeff 17 37 wf/cut 0.164641 5.924348407080925 1 2 17.773045221242775
pair_coeff 17 38 wf/cut 0.124417 5.863848431499796 1 2 17.591545294499387
pair_coeff 17 39 wf/cut 0.121113 5.822344488616284 1 2 17.46703346584885
pair_coeff 17 40 wf/cut 0.097122 6.1899864646586105 1 2 18.569959393975832
pair_coeff 18 18 wf/cut 0.078677 5.806155150598376 1 2 17.41846545179513
pair_coeff 18 19 wf/cut 0.073994 5.765149033334852 1 2 17.29544710000456
pair_coeff 18 20 wf/cut 0.039536 6.143860896897243 1 2 18.431582690691727
pair_coeff 18 21 wf/cut 0.053067 6.136530836242518 1 2 18.409592508727556
pair_coeff 18 22 wf/cut 0.073020 5.2521394224496145 1 2 15.756418267348844
pair_coeff 18 23 wf/cut 0.048396 6.232722071931244 1 2 18.698166215793734
pair_coeff 18 24 wf/cut 0.050043 5.845049472828402 1 2 17.535148418485207
pair_coeff 18 25 wf/cut 0.145613 6.3217567788528175 1 2 18.965270336558454
pair_coeff 18 26 wf/cut 0.056644 5.539473279208256 1 2 16.618419837624767
pair_coeff 18 27 wf/cut 0.076748 5.816985496228361 1 2 17.450956488685083
pair_coeff 18 28 wf/cut 0.079776 5.993977654615634 1 2 17.9819329638469
pair_coeff 18 29 wf/cut 0.186115 6.267859616819192 1 2 18.803578850457576
pair_coeff 18 30 wf/cut 0.041714 5.974983307333975 1 2 17.924949922001925
pair_coeff 18 31 wf/cut 0.043205 6.1411099770057245 1 2 18.42332993101717
pair_coeff 18 32 wf/cut 0.109254 6.042493928204347 1 2 18.12748178461304
pair_coeff 18 33 wf/cut 0.231838 6.433519247230287 1 2 19.300557741690863
pair_coeff 18 34 wf/cut 0.176474 6.216033392034327 1 2 18.648100176102982
pair_coeff 18 35 wf/cut 0.060773 5.611389850569513 1 2 16.834169551708538
pair_coeff 18 36 wf/cut 0.167940 6.070294170144763 1 2 18.21088251043429
pair_coeff 18 37 wf/cut 0.107055 5.865217375098184 1 2 17.595652125294553
pair_coeff 18 38 wf/cut 0.066831 5.808437279092397 1 2 17.425311837277192
pair_coeff 18 39 wf/cut 0.063527 5.767428643819603 1 2 17.302285931458808
pair_coeff 18 40 wf/cut 0.039536 6.143860896897243 1 2 18.431582690691727
pair_coeff 19 19 wf/cut 0.069311 5.724362787504792 1 2 17.173088362514378
pair_coeff 19 20 wf/cut 0.034853 6.10586575299424 1 2 18.31759725898272
pair_coeff 19 21 wf/cut 0.048384 6.0967512192398505 1 2 18.290253657719553
pair_coeff 19 22 wf/cut 0.068337 5.211108138159037 1 2 15.633324414477112
pair_coeff 19 23 wf/cut 0.043714 6.1934329156331 1 2 18.5802987468993
pair_coeff 19 24 wf/cut 0.045360 5.805442925019495 1 2 17.416328775058485
pair_coeff 19 25 wf/cut 0.140930 6.280274061428144 1 2 18.84082218428443
pair_coeff 19 26 wf/cut 0.051961 5.499319146540279 1 2 16.497957439620837
pair_coeff 19 27 wf/cut 0.072065 5.776024303801226 1 2 17.328072911403677
pair_coeff 19 28 wf/cut 0.075093 5.953096206763187 1 2 17.85928862028956
pair_coeff 19 29 wf/cut 0.181432 6.226290621468162 1 2 18.678871864404485
pair_coeff 19 30 wf/cut 0.037031 5.936496588820257 1 2 17.80948976646077
pair_coeff 19 31 wf/cut 0.038522 6.10236911417194 1 2 18.30710734251582
pair_coeff 19 32 wf/cut 0.104571 6.001202451726246 1 2 18.003607355178737
pair_coeff 19 33 wf/cut 0.227155 6.391918936768799 1 2 19.175756810306396
pair_coeff 19 34 wf/cut 0.171791 6.174477574070478 1 2 18.52343272221143
pair_coeff 19 35 wf/cut 0.056090 5.571011278043507 1 2 16.71303383413052
pair_coeff 19 36 wf/cut 0.163258 6.028753613252821 1 2 18.086260839758463
pair_coeff 19 37 wf/cut 0.102372 5.823949131867462 1 2 17.471847395602385
pair_coeff 19 38 wf/cut 0.062148 5.767856883865312 1 2 17.303570651595933
pair_coeff 19 39 wf/cut 0.058844 5.726983480603789 1 2 17.18095044181137
pair_coeff 19 40 wf/cut 0.034853 6.10586575299424 1 2 18.31759725898272
pair_coeff 20 21 wf/cut 0.013926 6.5199210046589675 1 2 19.5597630139769
pair_coeff 20 22 wf/cut 0.033879 5.587459907599181 1 2 16.76237972279754
pair_coeff 20 23 wf/cut 0.009256 6.649574443493311 1 2 19.948723330479933
pair_coeff 20 24 wf/cut 0.010902 6.242374503621665 1 2 18.727123510864995
pair_coeff 20 25 wf/cut 0.106472 6.648355967009086 1 2 19.945067901027258
pair_coeff 20 26 wf/cut 0.017503 5.903567074401621 1 2 17.71070122320486
pair_coeff 20 27 wf/cut 0.037607 6.155943831058615 1 2 18.467831493175847
pair_coeff 20 28 wf/cut 0.040635 6.331503643570952 1 2 18.994510930712856
pair_coeff 20 29 wf/cut 0.146974 6.593018960515583 1 2 19.77905688154675
pair_coeff 20 32 wf/cut 0.070113 6.372029116976672 1 2 19.116087350930016
pair_coeff 20 33 wf/cut 0.192697 6.757970683221281 1 2 20.273912049663842
pair_coeff 20 34 wf/cut 0.137333 6.5414250271565235 1 2 19.62427508146957
pair_coeff 20 35 wf/cut 0.021632 5.967018638311549 1 2 17.901055914934645
pair_coeff 20 36 wf/cut 0.128800 6.395882535691026 1 2 19.187647607073078
pair_coeff 20 37 wf/cut 0.067914 6.194931490620908 1 2 18.584794471862722
pair_coeff 20 38 wf/cut 0.027690 6.155796177211015 1 2 18.467388531633045
pair_coeff 20 39 wf/cut 0.024386 6.119051758363574 1 2 18.357155275090722
pair_coeff 21 21 wf/cut 0.027458 6.480069420606985 1 2 19.440208261820956
pair_coeff 21 22 wf/cut 0.047411 5.581642130693901 1 2 16.7449263920817
pair_coeff 21 23 wf/cut 0.022787 6.583002517343036 1 2 19.74900755202911
pair_coeff 21 24 wf/cut 0.024433 6.191552500203247 1 2 18.574657500609742
pair_coeff 21 25 wf/cut 0.120004 6.646999738911693 1 2 19.94099921673508
pair_coeff 21 26 wf/cut 0.031034 5.878598106878971 1 2 17.63579432063691
pair_coeff 21 27 wf/cut 0.051138 6.1478586796466335 1 2 18.443576038939902
pair_coeff 21 28 wf/cut 0.054167 6.324516380690015 1 2 18.973549142070045
pair_coeff 21 29 wf/cut 0.160505 6.592313711480712 1 2 19.776941134442136
pair_coeff 21 30 wf/cut 0.016104 6.340969704607503 1 2 19.02290911382251
pair_coeff 21 31 wf/cut 0.017596 6.5013402123206046 1 2 19.504020636961812
pair_coeff 21 32 wf/cut 0.083645 6.369348945541728 1 2 19.108046836625185
pair_coeff 21 33 wf/cut 0.206229 6.757540572332879 1 2 20.27262171699864
pair_coeff 21 34 wf/cut 0.150865 6.540596793679068 1 2 19.621790381037204
pair_coeff 21 35 wf/cut 0.035164 5.947844531230358 1 2 17.843533593691074
pair_coeff 21 36 wf/cut 0.142331 6.39500222582037 1 2 19.18500667746111
pair_coeff 21 37 wf/cut 0.081445 6.192166186380409 1 2 18.57649855914123
pair_coeff 21 38 wf/cut 0.041222 6.142414836822247 1 2 18.42724451046674
pair_coeff 21 39 wf/cut 0.037917 6.102763659737872 1 2 18.308290979213616
pair_coeff 21 40 wf/cut 0.013926 6.5199210046589675 1 2 19.5597630139769
pair_coeff 22 22 wf/cut 0.067364 4.698227190160832 1 2 14.094681570482496
pair_coeff 22 23 wf/cut 0.042740 5.6772849911904 1 2 17.0318549735712
pair_coeff 22 24 wf/cut 0.044387 5.289807269665101 1 2 15.869421808995302
pair_coeff 22 25 wf/cut 0.139957 5.768554114508845 1 2 17.305662343526535
pair_coeff 22 26 wf/cut 0.050987 4.984686027270456 1 2 14.954058081811368
pair_coeff 22 27 wf/cut 0.071091 5.262912382415455 1 2 15.788737147246366
pair_coeff 22 28 wf/cut 0.074120 5.439975772862831 1 2 16.319927318588494
pair_coeff 22 29 wf/cut 0.180458 5.714850862757114 1 2 17.144552588271342
pair_coeff 22 30 wf/cut 0.036057 5.418902704026212 1 2 16.256708112078634
pair_coeff 22 31 wf/cut 0.037549 5.585489758070483 1 2 16.756469274211447
pair_coeff 22 32 wf/cut 0.103598 5.489037080971375 1 2 16.467111242914125
pair_coeff 22 33 wf/cut 0.226182 5.8806376350894025 1 2 17.641912905268207
pair_coeff 22 34 wf/cut 0.170818 5.662987686021554 1 2 16.988963058064662
pair_coeff 22 35 wf/cut 0.055117 5.056931123036382 1 2 15.170793369109145
pair_coeff 22 36 wf/cut 0.162284 5.517215784587296 1 2 16.551647353761886
pair_coeff 22 37 wf/cut 0.101398 5.311696859115723 1 2 15.935090577347168
pair_coeff 22 38 wf/cut 0.061175 5.254183030641423 1 2 15.762549091924269
pair_coeff 22 39 wf/cut 0.057870 5.213062357159386 1 2 15.639187071478158
pair_coeff 22 40 wf/cut 0.033879 5.587459907599181 1 2 16.76237972279754
pair_coeff 23 23 wf/cut 0.013420 6.688853536606121 1 2 20.066560609818364
pair_coeff 23 24 wf/cut 0.019763 6.29527868599085 1 2 18.885836057972547
pair_coeff 23 25 wf/cut 0.085206 6.741392723436803 1 2 20.22417817031041
pair_coeff 23 26 wf/cut 0.026364 5.978305270632397 1 2 17.93491581189719
pair_coeff 23 27 wf/cut 0.000342 6.244253298502354 1 2 18.732759895507062
pair_coeff 23 28 wf/cut 0.000366 6.4204818546224995 1 2 19.261445563867497
pair_coeff 23 29 wf/cut 0.071890 6.686432938070228 1 2 20.059298814210685
pair_coeff 23 30 wf/cut 0.011434 6.460111302128625 1 2 19.380333906385875
pair_coeff 23 31 wf/cut 0.012925 6.617996254538358 1 2 19.853988763615074
pair_coeff 23 32 wf/cut 0.078974 6.4641118645001 1 2 19.3923355935003
pair_coeff 23 33 wf/cut 0.073358 6.85155566549562 1 2 20.55466699648686
pair_coeff 23 34 wf/cut 0.080693 6.634779187210656 1 2 19.90433756163197
pair_coeff 23 35 wf/cut 0.030493 6.046847416569171 1 2 18.14054224970751
pair_coeff 23 36 wf/cut 0.061166 6.489185414364156 1 2 19.467556243092467
pair_coeff 23 37 wf/cut 0.076775 6.2869559403051 1 2 18.860867820915303
pair_coeff 23 38 wf/cut 0.036551 6.240136548485556 1 2 18.72040964545667
pair_coeff 23 39 wf/cut 0.033247 6.2011686854634664 1 2 18.6035060563904
pair_coeff 23 40 wf/cut 0.009256 6.649574443493311 1 2 19.948723330479933
pair_coeff 24 24 wf/cut 0.021409 5.902825373061459 1 2 17.708476119184375
pair_coeff 24 25 wf/cut 0.116980 6.355020618222843 1 2 19.065061854668528
pair_coeff 24 26 wf/cut 0.028010 5.588184701124206 1 2 16.764554103372618
pair_coeff 24 27 wf/cut 0.048114 5.856453272809193 1 2 17.56935981842758
pair_coeff 24 28 wf/cut 0.051143 6.03282984385001 1 2 18.09848953155003
pair_coeff 24 29 wf/cut 0.157481 6.300272873273843 1 2 18.90081861982153
pair_coeff 24 30 wf/cut 0.013080 6.05885560137348 1 2 18.17656680412044
pair_coeff 24 31 wf/cut 0.014572 6.219293562690735 1 2 18.657880688072204
pair_coeff 24 32 wf/cut 0.080621 6.077365593674358 1 2 18.232096781023074
pair_coeff 24 33 wf/cut 0.203205 6.465539023765016 1 2 19.396617071295047
pair_coeff 24 34 wf/cut 0.147841 6.248599086448351 1 2 18.745797259345053
pair_coeff 24 35 wf/cut 0.032140 5.6574738585901345 1 2 16.972421575770404
pair_coeff 24 36 wf/cut 0.139307 6.102951668547555 1 2 18.308855005642666
pair_coeff 24 37 wf/cut 0.078421 5.900160965208208 1 2 17.700482895624624
pair_coeff 24 38 wf/cut 0.038198 5.85153222065546 1 2 17.55459666196638
pair_coeff 24 39 wf/cut 0.034893 5.812153931855011 1 2 17.436461795565034
pair_coeff 24 40 wf/cut 0.010902 6.242374503621665 1 2 18.727123510864995
pair_coeff 25 25 wf/cut 0.062978 6.840818860381698 1 2 20.522456581145093
pair_coeff 25 26 wf/cut 0.123581 6.051811079871612 1 2 18.155433239614837
pair_coeff 25 27 wf/cut 0.001064 6.332285213812248 1 2 18.996855641436742
pair_coeff 25 28 wf/cut 0.001085 6.509542326637676 1 2 19.528626979913028
pair_coeff 25 29 wf/cut 0.425474 6.7877218996841355 1 2 20.363165699052406
pair_coeff 25 30 wf/cut 0.108651 6.481102402445426 1 2 19.44330720733628
pair_coeff 25 31 wf/cut 0.110142 6.647901648052044 1 2 19.94370494415613
pair_coeff 25 32 wf/cut 0.176191 6.560327886240045 1 2 19.680983658720134
pair_coeff 25 33 wf/cut 0.484160 6.953839371357665 1 2 20.861518114072993
pair_coeff 25 34 wf/cut 0.381459 6.735769622233203 1 2 20.20730886669961
pair_coeff 25 35 wf/cut 0.127710 6.1245540687340725 1 2 18.37366220620222
pair_coeff 25 36 wf/cut 0.086889 6.589926019306955 1 2 19.769778057920867
pair_coeff 25 37 wf/cut 0.173991 6.38305646617526 1 2 19.14916939852578
pair_coeff 25 38 wf/cut 0.133768 6.322442926130092 1 2 18.967328778390275
pair_coeff 25 39 wf/cut 0.130463 6.280926022691235 1 2 18.842778068073706
pair_coeff 25 40 wf/cut 0.106472 6.648355967009086 1 2 19.945067901027258
pair_coeff 26 26 wf/cut 0.034611 5.278051554722805 1 2 15.834154664168416
pair_coeff 26 27 wf/cut 0.054715 5.550632394717641 1 2 16.651897184152922
pair_coeff 26 28 wf/cut 0.057743 5.727313013729271 1 2 17.18193904118781
pair_coeff 26 29 wf/cut 0.164082 5.997401234701861 1 2 17.99220370410558
pair_coeff 26 30 wf/cut 0.019681 5.729200436106479 1 2 17.187601308319437
pair_coeff 26 31 wf/cut 0.021172 5.893502125092778 1 2 17.680506375278334
pair_coeff 26 32 wf/cut 0.087222 5.77355467816977 1 2 17.32066403450931
pair_coeff 26 33 wf/cut 0.209805 6.162846524069043 1 2 18.48853957220713
pair_coeff 26 34 wf/cut 0.154442 5.945670315140756 1 2 17.837010945422268
pair_coeff 26 35 wf/cut 0.038740 5.3486854588231765 1 2 16.04605637646953
pair_coeff 26 36 wf/cut 0.145908 5.799973083941243 1 2 17.39991925182373
pair_coeff 26 37 wf/cut 0.085022 5.596251927245512 1 2 16.788755781736537
pair_coeff 26 38 wf/cut 0.044798 5.544164768287125 1 2 16.632494304861375
pair_coeff 26 39 wf/cut 0.041494 5.504054682438701 1 2 16.512164047316105
pair_coeff 26 40 wf/cut 0.017503 5.903567074401621 1 2 17.71070122320486
pair_coeff 27 27 wf/cut 0.055422 5.8277356350076115 1 2 17.483206905022833
pair_coeff 27 28 wf/cut 0.057461 6.0048083393750415 1 2 18.014425018125124
pair_coeff 27 29 wf/cut 0.184186 6.278368151196274 1 2 18.83510445358882
pair_coeff 27 30 wf/cut 0.039785 5.986861716352022 1 2 17.960585149056065
pair_coeff 27 31 wf/cut 0.041277 6.152881477214971 1 2 18.458644431644913
pair_coeff 27 32 wf/cut 0.107326 6.053140955180234 1 2 18.159422865540705
pair_coeff 27 33 wf/cut 0.229910 6.444000765960297 1 2 19.33200229788089
pair_coeff 27 34 wf/cut 0.174546 6.226529663564308 1 2 18.679588990692924
pair_coeff 27 35 wf/cut 0.058845 5.622457081906772 1 2 16.867371245720314
pair_coeff 27 36 wf/cut 0.001228 6.080799532766481 1 2 18.242398598299445
pair_coeff 27 37 wf/cut 0.105126 5.875867449320084 1 2 17.627602347960252
pair_coeff 27 38 wf/cut 0.064903 5.819413545043322 1 2 17.458240635129968
pair_coeff 27 39 wf/cut 0.061598 5.778457730344957 1 2 17.335373191034872
pair_coeff 27 40 wf/cut 0.037607 6.155943831058615 1 2 18.467831493175847
pair_coeff 28 28 wf/cut 0.059908 6.1818125994432265 1 2 18.54543779832968
pair_coeff 28 29 wf/cut 0.187215 6.4556028384801145 1 2 19.366808515440344
pair_coeff 28 30 wf/cut 0.042814 6.162677260323304 1 2 18.488031780969912
pair_coeff 28 31 wf/cut 0.044305 6.329122536684595 1 2 18.987367610053788
pair_coeff 28 32 wf/cut 0.110354 6.230341958421634 1 2 18.691025875264902
pair_coeff 28 33 wf/cut 0.232938 6.621259842822526 1 2 19.863779528467578
pair_coeff 28 34 wf/cut 0.177574 6.403800703379438 1 2 19.211402110138312
pair_coeff 28 35 wf/cut 0.061873 5.7993639894571976 1 2 17.39809196837159
pair_coeff 28 36 wf/cut 0.001252 6.258048801889918 1 2 18.774146405669754
pair_coeff 28 37 wf/cut 0.108154 6.053088642675554 1 2 18.159265928026663
pair_coeff 28 38 wf/cut 0.067931 5.9963870692049515 1 2 17.989161207614856
pair_coeff 28 39 wf/cut 0.064626 5.955407688864699 1 2 17.866223066594095
pair_coeff 28 40 wf/cut 0.040635 6.331503643570952 1 2 18.994510930712856
pair_coeff 29 29 wf/cut 0.293553 6.734901221669089 1 2 20.204703665007266
pair_coeff 29 30 wf/cut 0.149152 6.425928662140226 1 2 19.277785986420678
pair_coeff 29 31 wf/cut 0.150644 6.592808608254519 1 2 19.77842582476356
pair_coeff 29 32 wf/cut 0.216693 6.5069139355650485 1 2 19.520741806695145
pair_coeff 29 33 wf/cut 0.339277 6.901174934210456 1 2 20.703524802631367
pair_coeff 29 34 wf/cut 0.283913 6.682893550119813 1 2 20.048680650359437
pair_coeff 29 35 wf/cut 0.168212 6.070294170144763 1 2 18.21088251043429
pair_coeff 29 36 wf/cut 0.275379 6.53700493974828 1 2 19.61101481924484
pair_coeff 29 37 wf/cut 0.214493 6.329613164394258 1 2 18.988839493182773
pair_coeff 29 38 wf/cut 0.174270 6.268290266697097 1 2 18.80487080009129
pair_coeff 29 39 wf/cut 0.170965 6.226677571408917 1 2 18.68003271422675
pair_coeff 29 40 wf/cut 0.146974 6.593018960515583 1 2 19.77905688154675
pair_coeff 30 31 wf/cut 0.006243 6.436867325811939 1 2 19.310601977435816
pair_coeff 30 32 wf/cut 0.072292 6.2043654791136875 1 2 18.613096437341063
pair_coeff 30 33 wf/cut 0.194875 6.590992227279316 1 2 19.77297668183795
pair_coeff 30 34 wf/cut 0.139512 6.374322689731052 1 2 19.122968069193156
pair_coeff 30 35 wf/cut 0.023810 5.794680761693587 1 2 17.38404228508076
pair_coeff 30 36 wf/cut 0.130978 6.228734363673756 1 2 18.68620309102127
pair_coeff 30 37 wf/cut 0.070092 6.027237821338098 1 2 18.081713464014296
pair_coeff 30 38 wf/cut 0.029868 5.985230649978958 1 2 17.955691949936874
pair_coeff 30 39 wf/cut 0.026564 5.947631895281645 1 2 17.842895685844933
pair_coeff 31 31 wf/cut 0.007734 6.567831037515117 1 2 19.703493112545353
pair_coeff 31 32 wf/cut 0.073783 6.371180012524027 1 2 19.11354003757208
pair_coeff 31 33 wf/cut 0.196367 6.757844212311977 1 2 20.273532636935933
pair_coeff 31 34 wf/cut 0.141003 6.541152469250684 1 2 19.623457407752053
pair_coeff 31 35 wf/cut 0.025302 5.958948966149641 1 2 17.87684689844892
pair_coeff 31 36 wf/cut 0.132469 6.395617784448214 1 2 19.18685335334464
pair_coeff 31 37 wf/cut 0.071583 6.194052355515639 1 2 18.58215706654692
pair_coeff 31 38 wf/cut 0.031360 6.150442231391871 1 2 18.451326694175613
pair_coeff 31 39 wf/cut 0.028055 6.1123674095484715 1 2 18.337102228645414
pair_coeff 32 32 wf/cut 0.139832 6.280338147956703 1 2 18.841014443870108
pair_coeff 32 33 wf/cut 0.262416 6.672807379130834 1 2 20.018422137392502
pair_coeff 32 34 wf/cut 0.207052 6.454996866244807 1 2 19.364990598734423
pair_coeff 32 35 wf/cut 0.091351 5.846082838683163 1 2 17.53824851604949
pair_coeff 32 36 wf/cut 0.198518 6.309181376440496 1 2 18.92754412932149
pair_coeff 32 37 wf/cut 0.137633 6.103047888395006 1 2 18.30914366518502
pair_coeff 32 38 wf/cut 0.097409 6.043739153604026 1 2 18.131217460812078
pair_coeff 32 39 wf/cut 0.094104 6.002359484884067 1 2 18.007078454652202
pair_coeff 32 40 wf/cut 0.070113 6.372029116976672 1 2 19.116087350930016
pair_coeff 33 33 wf/cut 0.385000 7.067563273437359 1 2 21.202689820312077
pair_coeff 33 34 wf/cut 0.329636 6.849136659067028 1 2 20.547409977201085
pair_coeff 33 35 wf/cut 0.213935 6.235761878631987 1 2 18.70728563589596
pair_coeff 33 36 wf/cut 0.321102 6.703247958074066 1 2 20.109743874222197
pair_coeff 33 37 wf/cut 0.260216 6.49554680247315 1 2 19.48664040741945
pair_coeff 33 38 wf/cut 0.219993 6.433800819712532 1 2 19.3014024591376
pair_coeff 33 39 wf/cut 0.216688 6.3921696304391835 1 2 19.17650889131755
pair_coeff 33 40 wf/cut 0.192697 6.757970683221281 1 2 20.273912049663842
pair_coeff 34 34 wf/cut 0.274272 6.630885251270346 1 2 19.892655753811038
pair_coeff 34 35 wf/cut 0.158571 6.018506537122348 1 2 18.055519611367043
pair_coeff 34 36 wf/cut 0.265738 6.485029527646095 1 2 19.455088582938284
pair_coeff 34 37 wf/cut 0.204852 6.27772691468288 1 2 18.83318074404864
pair_coeff 34 38 wf/cut 0.164629 6.216488307385695 1 2 18.649464922157083
pair_coeff 34 39 wf/cut 0.161324 6.17490549231641 1 2 18.52471647694923
pair_coeff 34 40 wf/cut 0.137333 6.5414250271565235 1 2 19.62427508146957
pair_coeff 35 35 wf/cut 0.042870 5.4194558891562785 1 2 16.258367667468836
pair_coeff 35 36 wf/cut 0.150037 5.8728226163551005 1 2 17.6184678490653
pair_coeff 35 37 wf/cut 0.089151 5.6688305293155095 1 2 17.006491587946527
pair_coeff 35 38 wf/cut 0.048928 5.615420402551611 1 2 16.846261207654834
pair_coeff 35 39 wf/cut 0.045623 5.575027083025114 1 2 16.725081249075345
pair_coeff 35 40 wf/cut 0.021632 5.967018638311549 1 2 17.901055914934645
pair_coeff 36 36 wf/cut 0.019052 6.339149093005715 1 2 19.017447279017144
pair_coeff 36 37 wf/cut 0.196319 6.131909094415353 1 2 18.39572728324606
pair_coeff 36 38 wf/cut 0.156095 6.07081046198845 1 2 18.21243138596535
pair_coeff 36 39 wf/cut 0.152791 6.029219810679759 1 2 18.087659432039278
pair_coeff 36 40 wf/cut 0.128800 6.395882535691026 1 2 19.187647607073078
pair_coeff 37 37 wf/cut 0.135433 5.925773208988131 1 2 17.777319626964392
pair_coeff 37 38 wf/cut 0.095209 5.866481553533799 1 2 17.599444660601396
pair_coeff 37 39 wf/cut 0.091905 5.82512551794993 1 2 17.47537655384979
pair_coeff 37 40 wf/cut 0.067914 6.194931490620908 1 2 18.584794471862722
pair_coeff 38 38 wf/cut 0.054986 5.811826808320624 1 2 17.43548042496187
pair_coeff 38 39 wf/cut 0.051681 5.771184604473262 1 2 17.313553813419787
pair_coeff 38 40 wf/cut 0.027690 6.155796177211015 1 2 18.467388531633045
pair_coeff 39 39 wf/cut 0.048377 5.730699270006254 1 2 17.192097810018762
pair_coeff 39 40 wf/cut 0.024386 6.119051758363574 1 2 18.357155275090722
pair_coeff 40 40 wf/cut 0.000395 6.921680089176746 1 11 20.76504026753024
pair_coeff 20 40 wf/cut 0.000395 6.921680089176746 1 11 20.76504026753024
pair_coeff 20 20 wf/cut 0.000395 6.921680089176746 1 11 20.76504026753024
pair_coeff 10 20 wf/cut 0.002986 6.718011650959061 1 4 20.154034952877183
pair_coeff 10 40 wf/cut 0.002986 6.718011650959061 1 4 20.154034952877183
pair_coeff 20 30 wf/cut 0.002573 6.745752996427961 1 4 20.237258989283884
pair_coeff 20 31 wf/cut 0.004064 6.883184689300606 1 4 20.649554067901818
pair_coeff 30 40 wf/cut 0.002573 6.745752996427961 1 4 20.237258989283884
pair_coeff 31 40 wf/cut 0.004064 6.883184689300606 1 4 20.649554067901818
pair_coeff 3 3 coul/debye 35.
pair_coeff 3 5 coul/debye 35.
pair_coeff 3 7 coul/debye 35.
pair_coeff 3 8 coul/debye 35.
pair_coeff 3 16 coul/debye 35.
pair_coeff 3 23 coul/debye 35.
pair_coeff 3 25 coul/debye 35.
pair_coeff 3 36 coul/debye 35.
pair_coeff 5 5 coul/debye 35.
pair_coeff 5 7 coul/debye 35.
pair_coeff 5 8 coul/debye 35.
pair_coeff 5 16 coul/debye 35.
pair_coeff 5 23 coul/debye 35.
pair_coeff 5 25 coul/debye 35.
pair_coeff 5 27 coul/debye 35.
pair_coeff 5 28 coul/debye 35.
pair_coeff 5 36 coul/debye 35.
pair_coeff 7 7 coul/debye 35.
pair_coeff 7 8 coul/debye 35.
pair_coeff 7 16 coul/debye 35.
pair_coeff 7 23 coul/debye 35.
pair_coeff 7 25 coul/debye 35.
pair_coeff 7 27 coul/debye 35.
pair_coeff 7 28 coul/debye 35.
pair_coeff 7 36 coul/debye 35.
pair_coeff 8 8 coul/debye 35.
pair_coeff 8 16 coul/debye 35.
pair_coeff 8 23 coul/debye 35.
pair_coeff 8 25 coul/debye 35.
pair_coeff 8 27 coul/debye 35.
pair_coeff 8 28 coul/debye 35.
pair_coeff 8 36 coul/debye 35.
pair_coeff 16 16 coul/debye 35.
pair_coeff 16 23 coul/debye 35.
pair_coeff 16 25 coul/debye 35.
pair_coeff 16 27 coul/debye 35.
pair_coeff 16 28 coul/debye 35.
pair_coeff 16 36 coul/debye 35.
pair_coeff 23 23 coul/debye 35.
pair_coeff 23 25 coul/debye 35.
pair_coeff 23 36 coul/debye 35.
pair_coeff 25 25 coul/debye 35.
pair_coeff 25 27 coul/debye 35.
pair_coeff 25 28 coul/debye 35.
pair_coeff 25 36 coul/debye 35.
pair_coeff 27 27 coul/debye 35.
pair_coeff 27 28 coul/debye 35.
pair_coeff 27 36 coul/debye 35.
pair_coeff 28 28 coul/debye 35.
pair_coeff 28 36 coul/debye 35.
pair_coeff 36 36 coul/debye 35.
pair_coeff 3 27 coul/debye 35.
pair_coeff 3 28 coul/debye 35.
pair_coeff 23 27 coul/debye 35.
pair_coeff 23 28 coul/debye 35.

special_bonds fene
Finding 1-2 1-3 1-4 neighbors ...
  special bond factors lj:    0        1        1       
  special bond factors coul:  0        1        1       
     2 = max # of 1-2 neighbors
     6 = max # of special neighbors
  special bonds CPU = 0.000 seconds
neighbor  3.5 multi
neigh_modify  every 10 delay 0

comm_style    tiled

timer timeout 35:50:00
New timer settings: style=normal  mode=nosync  timeout=11:50:00

velocity      all create $T 494211
velocity      all create 325 494211
fix           fxnve   all nve
fix           fxlange all langevin $T $T 40000.0 32784
fix           fxlange all langevin 325 $T 40000.0 32784
fix           fxlange all langevin 325 325 40000.0 32784

dump          1 all custom 100000 $d-$T.xyz id mol type q xu yu zu
dump          1 all custom 100000 TIA_WT-$T.xyz id mol type q xu yu zu
dump          1 all custom 100000 TIA_WT-325.xyz id mol type q xu yu zu
dump_modify   1 sort id

#compute       rad all gyration
#compute       dis all pair/local dist
#compute       maximo all reduce max c_dis
#compute       mean all reduce ave c_dis

thermo        1000000
thermo_style  custom step pe temp  press ke lx ly lz pzz  spcpu density
thermo_modify flush yes

restart      10000000 restart$T
restart      10000000 restart325

####Minimization

timestep 0.01
run 2000
Neighbor list info ...
  update every 10 steps, delay 0 steps, check yes
  max neighbors/atom: 2000, page size: 100000
  master list distance cutoff = 38.5
  ghost atom cutoff = 38.5
  binsize = 8.7926654, bins = 35 35 35
  2 neighbor lists, perpetual/occasional/extra = 2 0 0
  (1) pair wf/cut, perpetual
      attributes: half, newton on
      pair build: half/multi/newton
      stencil: half/multi/3d/newton
      bin: standard
  (2) pair coul/debye, perpetual, skip from (1)
      attributes: half, newton on
      pair build: skip
      stencil: none
      bin: none
Per MPI rank memory allocation (min/avg/max) = 8.891 | 8.953 | 9.133 Mbytes
Step PotEng Temp Press KinEng Lx Ly Lz Pzz S/CPU Density 
       0   -13.356653          325   0.41602474    93.001274          300          300          300   0.29499648            0 0.00066940445 
    2000   -11.442326    318.41034   0.39748304     91.11559          300          300          300   0.29398819    40517.825 0.00066940445 
Loop time of 0.0493809 on 6 procs for 2000 steps with 97 atoms

Performance: 34.993 ns/day, 0.686 hours/ns, 40501.523 timesteps/s
99.7% CPU use with 6 MPI tasks x no OpenMP threads

MPI task timing breakdown:
Section |  min time  |  avg time  |  max time  |%varavg| %total
---------------------------------------------------------------
Pair    | 0.00052786 | 0.0034492  | 0.017539   |  10.7 |  6.98
Bond    | 7.0333e-05 | 0.00043444 | 0.0021405  |   0.0 |  0.88
Neigh   | 0          | 0          | 0          |   0.0 |  0.00
Comm    | 0.018003   | 0.040281   | 0.045544   |   5.0 | 81.57
Output  | 2.0981e-05 | 2.8332e-05 | 3.8862e-05 |   0.0 |  0.06
Modify  | 0.0002501  | 0.0020439  | 0.010592   |   8.5 |  4.14
Other   |            | 0.003144   |            |       |  6.37

Nlocal:        16.1667 ave          96 max           0 min
Histogram: 5 0 0 0 0 0 0 0 0 1
Nghost:        39.5000 ave          57 max           0 min
Histogram: 1 0 0 0 1 0 0 0 1 3
Neighs:        73.5000 ave         436 max           0 min
Histogram: 5 0 0 0 0 0 0 0 0 1

Total # of neighbors = 441
Ave neighs/atom = 4.5463918
Ave special neighs/atom = 1.9793814
Neighbor list builds = 0
Dangerous builds = 0

timestep 0.1
run 2000
Per MPI rank memory allocation (min/avg/max) = 8.891 | 8.953 | 9.133 Mbytes
Step PotEng Temp Press KinEng Lx Ly Lz Pzz S/CPU Density 
    2000   -11.442326    318.41034   0.39748304     91.11559          300          300          300   0.29398819            0 0.00066940445 
    4000     3.552512    269.13859  -0.16421793    77.016096          300          300          300  -0.11392299    40256.881 0.00066940445 
Loop time of 0.0496936 on 6 procs for 2000 steps with 97 atoms

Performance: 347.731 ns/day, 0.069 hours/ns, 40246.644 timesteps/s
99.7% CPU use with 6 MPI tasks x no OpenMP threads

MPI task timing breakdown:
Section |  min time  |  avg time  |  max time  |%varavg| %total
---------------------------------------------------------------
Pair    | 0.00054359 | 0.003423   | 0.017401   |  10.7 |  6.89
Bond    | 6.7472e-05 | 0.00043662 | 0.0021334  |   0.0 |  0.88
Neigh   | 0          | 0          | 0          |   0.0 |  0.00
Comm    | 0.018402   | 0.040601   | 0.045934   |   4.9 | 81.70
Output  | 2.0981e-05 | 2.7657e-05 | 3.2902e-05 |   0.0 |  0.06
Modify  | 0.00024748 | 0.0020575  | 0.010693   |   8.5 |  4.14
Other   |            | 0.003148   |            |       |  6.34

Nlocal:        16.1667 ave          96 max           0 min
Histogram: 5 0 0 0 0 0 0 0 0 1
Nghost:        39.5000 ave          57 max           0 min
Histogram: 1 0 0 0 1 0 0 0 1 3
Neighs:        73.5000 ave         436 max           0 min
Histogram: 5 0 0 0 0 0 0 0 0 1

Total # of neighbors = 441
Ave neighs/atom = 4.5463918
Ave special neighs/atom = 1.9793814
Neighbor list builds = 0
Dangerous builds = 0

timestep 1
run 2000
Per MPI rank memory allocation (min/avg/max) = 8.891 | 8.953 | 9.133 Mbytes
Step PotEng Temp Press KinEng Lx Ly Lz Pzz S/CPU Density 
    4000     3.552512    269.13859  -0.16421793    77.016096          300          300          300  -0.11392299            0 0.00066940445 
    6000    13.442762    260.65379  -0.23183024    74.588107          300          300          300 -0.015976017    41339.484 0.00066940445 
Loop time of 0.0483938 on 6 procs for 2000 steps with 97 atoms

Performance: 3570.705 ns/day, 0.007 hours/ns, 41327.603 timesteps/s
99.8% CPU use with 6 MPI tasks x no OpenMP threads

MPI task timing breakdown:
Section |  min time  |  avg time  |  max time  |%varavg| %total
---------------------------------------------------------------
Pair    | 0.00056529 | 0.0034096  | 0.017162   |  10.5 |  7.05
Bond    | 8.9169e-05 | 0.00043873 | 0.0021093  |   0.0 |  0.91
Neigh   | 0.00029182 | 0.00029759 | 0.00030398 |   0.0 |  0.61
Comm    | 0.017169   | 0.039123   | 0.044223   |   5.0 | 80.84
Output  | 2.2173e-05 | 2.8729e-05 | 3.4809e-05 |   0.0 |  0.06
Modify  | 0.00029635 | 0.0020512  | 0.010536   |   8.4 |  4.24
Other   |            | 0.003045   |            |       |  6.29

Nlocal:        16.1667 ave          95 max           0 min
Histogram: 5 0 0 0 0 0 0 0 0 1
Nghost:        38.6667 ave          57 max           0 min
Histogram: 1 0 0 0 1 0 0 0 3 1
Neighs:        73.6667 ave         430 max           0 min
Histogram: 5 0 0 0 0 0 0 0 0 1

Total # of neighbors = 442
Ave neighs/atom = 4.5567010
Ave special neighs/atom = 1.9793814
Neighbor list builds = 5
Dangerous builds = 0

####Collapse the IDR

timestep 10
run 1000000
Per MPI rank memory allocation (min/avg/max) = 8.892 | 8.974 | 9.133 Mbytes
Step PotEng Temp Press KinEng Lx Ly Lz Pzz S/CPU Density 
    6000    13.442762    260.65379  -0.23183024    74.588107          300          300          300 -0.015976017            0 0.00066940445 
 1000000    13.071605    263.69918   -0.1332451    75.459567          300          300          300  -0.17474372    20991.457 0.00066940445 
 1006000    5.7117805    283.80268  0.015356855    81.212339          300          300          300    0.1070158    22422.199 0.00066940445 
Loop time of 47.6202 on 6 procs for 1000000 steps with 97 atoms

Performance: 18143.557 ns/day, 0.001 hours/ns, 20999.487 timesteps/s
99.7% CPU use with 6 MPI tasks x no OpenMP threads

MPI task timing breakdown:
Section |  min time  |  avg time  |  max time  |%varavg| %total
---------------------------------------------------------------
Pair    | 0.32649    | 5.8265     | 16.207     | 237.9 | 12.24
Bond    | 0.041984   | 0.21693    | 0.52307    |  38.1 |  0.46
Neigh   | 2.1401     | 2.1524     | 2.1625     |   0.5 |  4.52
Comm    | 25.211     | 37.044     | 43.327     | 107.9 | 77.79
Output  | 0.0012374  | 0.0014624  | 0.0022767  |   1.0 |  0.00
Modify  | 0.15585    | 1.0273     | 2.6028     |  89.2 |  2.16
Other   |            | 1.352      |            |       |  2.84

Nlocal:        16.1667 ave          97 max           0 min
Histogram: 5 0 0 0 0 0 0 0 0 1
Nghost:        13.0000 ave          37 max           0 min
Histogram: 3 0 0 0 0 2 0 0 0 1
Neighs:        188.500 ave        1131 max           0 min
Histogram: 5 0 0 0 0 0 0 0 0 1

Total # of neighbors = 1131
Ave neighs/atom = 11.659794
Ave special neighs/atom = 1.9793814
Neighbor list builds = 26550
Dangerous builds = 0

####Replicate initial system

replicate 4 4 4
Replicating atoms ...
  orthogonal box = (0.0000000 0.0000000 0.0000000) to (1200.0000 1200.0000 1200.0000)
  1 by 2 by 3 MPI processor grid
  6208 atoms
  6144 bonds
Finding 1-2 1-3 1-4 neighbors ...
  special bond factors lj:    0        1        1       
  special bond factors coul:  0        1        1       
     2 = max # of 1-2 neighbors
     6 = max # of special neighbors
  special bonds CPU = 0.000 seconds
  replicate CPU = 0.002 seconds

run 1
Per MPI rank memory allocation (min/avg/max) = 11.62 | 11.64 | 11.68 Mbytes
Step PotEng Temp Press KinEng Lx Ly Lz Pzz S/CPU Density 
 1006000    365.55395    280.92213  0.015356855    5197.5897         1200         1200         1200    0.1070158            0 0.00066940445 
 1006001    407.84093    278.55004 -0.0098415453    5153.7017         1200         1200         1200  0.079409137     1639.681 0.00066940445 
Loop time of 0.000619888 on 6 procs for 1 steps with 6208 atoms

Performance: 1393.799 ns/day, 0.017 hours/ns, 1613.194 timesteps/s
99.8% CPU use with 6 MPI tasks x no OpenMP threads

MPI task timing breakdown:
Section |  min time  |  avg time  |  max time  |%varavg| %total
---------------------------------------------------------------
Pair    | 0.00023198 | 0.00031082 | 0.00045991 |   0.0 | 50.14
Bond    | 1.3113e-05 | 1.8239e-05 | 2.8133e-05 |   0.0 |  2.94
Neigh   | 0          | 0          | 0          |   0.0 |  0.00
Comm    | 1.4067e-05 | 0.00017448 | 0.00025797 |   0.0 | 28.15
Output  | 2.8133e-05 | 5.4399e-05 | 7.2002e-05 |   0.0 |  8.78
Modify  | 4.1008e-05 | 5.4757e-05 | 8.1778e-05 |   0.0 |  8.83
Other   |            | 7.192e-06  |            |       |  1.16

Nlocal:        1034.67 ave        1552 max         776 min
Histogram: 4 0 0 0 0 0 0 0 0 2
Nghost:        191.333 ave         290 max          80 min
Histogram: 2 0 0 0 0 2 0 0 0 2
Neighs:        12138.7 ave       18208 max        9104 min
Histogram: 4 0 0 0 0 0 0 0 0 2

Total # of neighbors = 72832
Ave neighs/atom = 11.731959
Ave special neighs/atom = 1.9793814
Neighbor list builds = 0
Dangerous builds = 0

####Smaller box size

#change_box all x final 0 300 y final 0 300 z final 0 300 remap

####Loop to compress

variable myDensity equal density
label loop
variable a loop 1000
change_box all x scale 0.95 y scale 0.95 z scale 0.95 remap
Changing box ...
  orthogonal box = (30.000000 0.0000000 0.0000000) to (1170.0000 1200.0000 1200.0000)
  orthogonal box = (30.000000 30.000000 0.0000000) to (1170.0000 1170.0000 1200.0000)
  orthogonal box = (30.000000 30.000000 30.000000) to (1170.0000 1170.0000 1170.0000)
run 8000
Per MPI rank memory allocation (min/avg/max) = 11.62 | 11.64 | 11.68 Mbytes
Step PotEng Temp Press KinEng Lx Ly Lz Pzz S/CPU Density 
 1006001    2683.6442    278.55004    1.7239032    5153.7017         1140         1140         1140    1.8384256            0 0.0007807604 
 1014001    472.21747    328.26292 -0.028753096    6073.4838         1140         1140         1140 -0.025528187    1568.5364 0.0007807604 
Loop time of 5.10042 on 6 procs for 8000 steps with 6208 atoms

Performance: 1355.183 ns/day, 0.018 hours/ns, 1568.499 timesteps/s
99.7% CPU use with 6 MPI tasks x no OpenMP threads

MPI task timing breakdown:
Section |  min time  |  avg time  |  max time  |%varavg| %total
---------------------------------------------------------------
Pair    | 1.7703     | 2.4391     | 3.6824     |  55.6 | 47.82
Bond    | 0.064723   | 0.08752    | 0.1327     |  10.4 |  1.72
Neigh   | 0.42642    | 0.4278     | 0.42909    |   0.2 |  8.39
Comm    | 0.1772     | 1.646      | 2.4262     |  79.8 | 32.27
Output  | 4.6968e-05 | 0.00010065 | 0.00020099 |   0.0 |  0.00
Modify  | 0.32677    | 0.44038    | 0.66441    |  23.3 |  8.63
Other   |            | 0.05949    |            |       |  1.17

Nlocal:        1034.67 ave        1538 max         776 min
Histogram: 4 0 0 0 0 0 0 0 0 2
Nghost:        233.500 ave         382 max         116 min
Histogram: 2 0 0 1 0 1 0 1 0 1
Neighs:        17272.3 ave       25522 max       11225 min
Histogram: 1 1 2 0 0 0 0 0 0 2

Total # of neighbors = 103634
Ave neighs/atom = 16.693621
Ave special neighs/atom = 1.9793814
Neighbor list builds = 296
Dangerous builds = 0

if "${myDensity} > 1.0" then "jump SELF break"

next a
jump SELF loop
variable a loop 1000
change_box all x scale 0.95 y scale 0.95 z scale 0.95 remap
Changing box ...
  orthogonal box = (58.500000 30.000000 30.000000) to (1141.5000 1170.0000 1170.0000)
  orthogonal box = (58.500000 58.500000 30.000000) to (1141.5000 1141.5000 1170.0000)
  orthogonal box = (58.500000 58.500000 58.500000) to (1141.5000 1141.5000 1141.5000)
run 8000
Per MPI rank memory allocation (min/avg/max) = 11.62 | 11.64 | 11.68 Mbytes
Step PotEng Temp Press KinEng Lx Ly Lz Pzz S/CPU Density 
 1014001    2544.0448    328.26292    1.9510313    6073.4838         1083         1083         1083    2.0069024            0 0.0009106405 
 1022001    500.68745    331.57828  0.014610519    6134.8242         1083         1083         1083 0.0044672284    1457.9215 0.0009106405 
Loop time of 5.48738 on 6 procs for 8000 steps with 6208 atoms

Performance: 1259.617 ns/day, 0.019 hours/ns, 1457.890 timesteps/s
99.7% CPU use with 6 MPI tasks x no OpenMP threads

MPI task timing breakdown:
Section |  min time  |  avg time  |  max time  |%varavg| %total
---------------------------------------------------------------
Pair    | 1.8761     | 2.6979     | 4.0559     |  54.7 | 49.16
Bond    | 0.06492    | 0.087477   | 0.13048    |   9.9 |  1.59
Neigh   | 0.44279    | 0.44401    | 0.44589    |   0.2 |  8.09
Comm    | 0.18904    | 1.7594     | 2.6856     |  78.7 | 32.06
Output  | 4.0054e-05 | 8.3963e-05 | 0.00018501 |   0.0 |  0.00
Modify  | 0.32898    | 0.44056    | 0.65248    |  22.0 |  8.03
Other   |            | 0.05793    |            |       |  1.06

Nlocal:        1034.67 ave        1517 max         777 min
Histogram: 4 0 0 0 0 0 0 0 0 2
Nghost:        358.500 ave         582 max         185 min
Histogram: 1 0 1 1 1 1 0 0 0 1
Neighs:        17001.7 ave       24764 max       12751 min
Histogram: 4 0 0 0 0 0 0 0 0 2

Total # of neighbors = 102010
Ave neighs/atom = 16.432023
Ave special neighs/atom = 1.9793814
Neighbor list builds = 313
Dangerous builds = 0

if "${myDensity} > 1.0" then "jump SELF break"

next a
jump SELF loop
variable a loop 1000
change_box all x scale 0.95 y scale 0.95 z scale 0.95 remap
Changing box ...
  orthogonal box = (85.575000 58.500000 58.500000) to (1114.4250 1141.5000 1141.5000)
  orthogonal box = (85.575000 85.575000 58.500000) to (1114.4250 1114.4250 1141.5000)
  orthogonal box = (85.575000 85.575000 85.575000) to (1114.4250 1114.4250 1114.4250)
run 8000
Per MPI rank memory allocation (min/avg/max) = 11.62 | 11.64 | 11.68 Mbytes
Step PotEng Temp Press KinEng Lx Ly Lz Pzz S/CPU Density 
 1022001    2692.0039    331.57828    2.3217994    6134.8242      1028.85      1028.85      1028.85    2.2859773            0 0.0010621263 
 1030001    377.61307    330.19648  -0.02315014    6109.2582      1028.85      1028.85      1028.85  -0.06728872     1462.084 0.0010621263 
Loop time of 5.47176 on 6 procs for 8000 steps with 6208 atoms

Performance: 1263.213 ns/day, 0.019 hours/ns, 1462.052 timesteps/s
99.7% CPU use with 6 MPI tasks x no OpenMP threads

MPI task timing breakdown:
Section |  min time  |  avg time  |  max time  |%varavg| %total
---------------------------------------------------------------
Pair    | 2.0586     | 2.7351     | 4.0497     |  50.9 | 49.99
Bond    | 0.064442   | 0.087258   | 0.12643    |   9.3 |  1.59
Neigh   | 0.42007    | 0.42186    | 0.42436    |   0.2 |  7.71
Comm    | 0.22652    | 1.7299     | 2.5168     |  74.3 | 31.62
Output  | 4.1962e-05 | 8.4718e-05 | 0.00018215 |   0.0 |  0.00
Modify  | 0.32686    | 0.44039    | 0.63836    |  20.8 |  8.05
Other   |            | 0.05715    |            |       |  1.04

Nlocal:        1034.67 ave        1486 max         780 min
Histogram: 3 0 1 0 0 0 0 0 1 1
Nghost:        467.333 ave         600 max         384 min
Histogram: 1 0 1 3 0 0 0 0 0 1
Neighs:        18184.7 ave       25819 max       13120 min
Histogram: 3 0 0 1 0 0 0 0 0 2

Total # of neighbors = 109108
Ave neighs/atom = 17.575387
Ave special neighs/atom = 1.9793814
Neighbor list builds = 309
Dangerous builds = 0

if "${myDensity} > 1.0" then "jump SELF break"

next a
jump SELF loop
variable a loop 1000
change_box all x scale 0.95 y scale 0.95 z scale 0.95 remap
Changing box ...
  orthogonal box = (111.29625 85.575000 85.575000) to (1088.7037 1114.4250 1114.4250)
  orthogonal box = (111.29625 111.29625 85.575000) to (1088.7037 1088.7037 1114.4250)
  orthogonal box = (111.29625 111.29625 111.29625) to (1088.7037 1088.7037 1088.7037)
run 8000
Per MPI rank memory allocation (min/avg/max) = 11.62 | 11.64 | 11.68 Mbytes
Step PotEng Temp Press KinEng Lx Ly Lz Pzz S/CPU Density 
 1030001     2487.477    330.19648    2.6761537    6109.2582     977.4075     977.4075     977.4075    2.6035873            0 0.0012388118 
 1038001    445.37932    334.03413 -0.013881835    6180.2621     977.4075     977.4075     977.4075 -0.052493289    1487.4066 0.0012388118 
Loop time of 5.37861 on 6 procs for 8000 steps with 6208 atoms

Performance: 1285.090 ns/day, 0.019 hours/ns, 1487.373 timesteps/s
99.7% CPU use with 6 MPI tasks x no OpenMP threads

MPI task timing breakdown:
Section |  min time  |  avg time  |  max time  |%varavg| %total
---------------------------------------------------------------
Pair    | 2.0566     | 2.8528     | 3.9759     |  47.2 | 53.04
Bond    | 0.064725   | 0.087432   | 0.12157    |   7.7 |  1.63
Neigh   | 0.39159    | 0.39401    | 0.39619    |   0.2 |  7.33
Comm    | 0.2889     | 1.5517     | 2.4606     |  72.9 | 28.85
Output  | 4.1008e-05 | 7.9473e-05 | 0.00017381 |   0.0 |  0.00
Modify  | 0.3268     | 0.441      | 0.61324    |  17.3 |  8.20
Other   |            | 0.05161    |            |       |  0.96

Nlocal:        1034.67 ave        1422 max         765 min
Histogram: 1 2 0 1 0 0 0 0 1 1
Nghost:        550.667 ave         619 max         452 min
Histogram: 1 0 0 0 1 0 1 2 0 1
Neighs:        18017.0 ave       24699 max       12718 min
Histogram: 2 1 0 0 0 1 0 0 1 1

Total # of neighbors = 108102
Ave neighs/atom = 17.413338
Ave special neighs/atom = 1.9793814
Neighbor list builds = 306
Dangerous builds = 0

if "${myDensity} > 1.0" then "jump SELF break"

next a
jump SELF loop
variable a loop 1000
change_box all x scale 0.95 y scale 0.95 z scale 0.95 remap
Changing box ...
  orthogonal box = (135.73144 111.29625 111.29625) to (1064.2686 1088.7037 1088.7037)
  orthogonal box = (135.73144 135.73144 111.29625) to (1064.2686 1064.2686 1088.7037)
  orthogonal box = (135.73144 135.73144 135.73144) to (1064.2686 1064.2686 1064.2686)
run 8000
Per MPI rank memory allocation (min/avg/max) = 11.62 | 11.64 | 11.68 Mbytes
Step PotEng Temp Press KinEng Lx Ly Lz Pzz S/CPU Density 
 1038001    2570.1794    334.03413    3.1300187    6180.2621    928.53712    928.53712    928.53712    3.0642356            0 0.0014448891 
 1046001    401.32543     333.4959  0.049317034    6170.3037    928.53712    928.53712    928.53712   0.10432629    1480.3362 0.0014448891 
Loop time of 5.4043 on 6 procs for 8000 steps with 6208 atoms

Performance: 1278.981 ns/day, 0.019 hours/ns, 1480.302 timesteps/s
99.7% CPU use with 6 MPI tasks x no OpenMP threads

MPI task timing breakdown:
Section |  min time  |  avg time  |  max time  |%varavg| %total
---------------------------------------------------------------
Pair    | 1.9405     | 2.8007     | 4.0057     |  46.2 | 51.82
Bond    | 0.063348   | 0.087398   | 0.11903    |   7.2 |  1.62
Neigh   | 0.39813    | 0.40087    | 0.40305    |   0.3 |  7.42
Comm    | 0.26304    | 1.6255     | 2.5845     |  68.9 | 30.08
Output  | 5.0068e-05 | 8.8453e-05 | 0.00018787 |   0.0 |  0.00
Modify  | 0.32076    | 0.44095    | 0.6012     |  16.1 |  8.16
Other   |            | 0.04874    |            |       |  0.90

Nlocal:        1034.67 ave        1417 max         747 min
Histogram: 2 0 0 2 0 0 0 0 1 1
Nghost:        650.167 ave         759 max         601 min
Histogram: 2 0 2 1 0 0 0 0 0 1
Neighs:        17884.0 ave       27156 max       11063 min
Histogram: 2 0 1 0 1 0 0 1 0 1

Total # of neighbors = 107304
Ave neighs/atom = 17.284794
Ave special neighs/atom = 1.9793814
Neighbor list builds = 314
Dangerous builds = 0

if "${myDensity} > 1.0" then "jump SELF break"

next a
jump SELF loop
variable a loop 1000
change_box all x scale 0.95 y scale 0.95 z scale 0.95 remap
Changing box ...
  orthogonal box = (158.94487 135.73144 135.73144) to (1041.0551 1064.2686 1064.2686)
  orthogonal box = (158.94487 158.94487 135.73144) to (1041.0551 1041.0551 1064.2686)
  orthogonal box = (158.94487 158.94487 158.94487) to (1041.0551 1041.0551 1041.0551)
run 8000
Per MPI rank memory allocation (min/avg/max) = 11.63 | 11.64 | 11.68 Mbytes
Step PotEng Temp Press KinEng Lx Ly Lz Pzz S/CPU Density 
 1046001    2652.8696     333.4959    3.7399929    6170.3037    882.11027    882.11027    882.11027    3.8336509            0 0.0016852475 
 1054001    387.16346    336.62686  0.059964944    6228.2324    882.11027    882.11027    882.11027  0.031661933    1436.6769 0.0016852475 
Loop time of 5.56854 on 6 procs for 8000 steps with 6208 atoms

Performance: 1241.258 ns/day, 0.019 hours/ns, 1436.641 timesteps/s
99.5% CPU use with 6 MPI tasks x no OpenMP threads

MPI task timing breakdown:
Section |  min time  |  avg time  |  max time  |%varavg| %total
---------------------------------------------------------------
Pair    | 2.0214     | 2.8341     | 4.0677     |  44.6 | 50.89
Bond    | 0.064874   | 0.087563   | 0.12098    |   7.1 |  1.57
Neigh   | 0.39858    | 0.40178    | 0.4045     |   0.3 |  7.22
Comm    | 0.35288    | 1.7505     | 2.6737     |  64.5 | 31.43
Output  | 3.8147e-05 | 8.2254e-05 | 0.00019193 |   0.0 |  0.00
Modify  | 0.32758    | 0.44201    | 0.61009    |  15.8 |  7.94
Other   |            | 0.05253    |            |       |  0.94

Nlocal:        1034.67 ave        1440 max         782 min
Histogram: 2 1 0 1 0 0 0 1 0 1
Nghost:        782.500 ave         946 max         569 min
Histogram: 1 0 0 0 0 1 3 0 0 1
Neighs:        17511.7 ave       24078 max       13845 min
Histogram: 2 0 2 0 0 0 1 0 0 1

Total # of neighbors = 105070
Ave neighs/atom = 16.924936
Ave special neighs/atom = 1.9793814
Neighbor list builds = 311
Dangerous builds = 0

if "${myDensity} > 1.0" then "jump SELF break"

next a
jump SELF loop
variable a loop 1000
change_box all x scale 0.95 y scale 0.95 z scale 0.95 remap
Changing box ...
  orthogonal box = (180.99762 158.94487 158.94487) to (1019.0024 1041.0551 1041.0551)
  orthogonal box = (180.99762 180.99762 158.94487) to (1019.0024 1019.0024 1041.0551)
  orthogonal box = (180.99762 180.99762 180.99762) to (1019.0024 1019.0024 1019.0024)
run 8000
Per MPI rank memory allocation (min/avg/max) = 11.63 | 11.65 | 11.68 Mbytes
Step PotEng Temp Press KinEng Lx Ly Lz Pzz S/CPU Density 
 1054001     2605.576    336.62686    4.3130554    6228.2324    838.00476    838.00476    838.00476    4.2570408            0 0.0019655898 
 1062001    461.67258    333.28542 -0.0055325474    6166.4095    838.00476    838.00476    838.00476 -0.030479157    1564.8895 0.0019655898 
Loop time of 5.11231 on 6 procs for 8000 steps with 6208 atoms

Performance: 1352.030 ns/day, 0.018 hours/ns, 1564.850 timesteps/s
99.7% CPU use with 6 MPI tasks x no OpenMP threads

MPI task timing breakdown:
Section |  min time  |  avg time  |  max time  |%varavg| %total
---------------------------------------------------------------
Pair    | 2.0006     | 2.7447     | 3.6114     |  39.2 | 53.69
Bond    | 0.066053   | 0.087767   | 0.11756    |   7.2 |  1.72
Neigh   | 0.35845    | 0.36167    | 0.36448    |   0.3 |  7.07
Comm    | 0.41328    | 1.4248     | 2.2769     |  63.1 | 27.87
Output  | 4.7922e-05 | 8.7778e-05 | 0.00018811 |   0.0 |  0.00
Modify  | 0.3349     | 0.44241    | 0.5899     |  15.9 |  8.65
Other   |            | 0.0508     |            |       |  0.99

Nlocal:        1034.67 ave        1375 max         738 min
Histogram: 1 1 0 2 0 0 0 0 0 2
Nghost:        835.500 ave        1016 max         720 min
Histogram: 2 0 2 0 0 0 0 1 0 1
Neighs:        18040.0 ave       24469 max       12226 min
Histogram: 2 0 1 0 0 1 0 0 0 2

Total # of neighbors = 108240
Ave neighs/atom = 17.435567
Ave special neighs/atom = 1.9793814
Neighbor list builds = 309
Dangerous builds = 0

if "${myDensity} > 1.0" then "jump SELF break"

next a
jump SELF loop
variable a loop 1000
change_box all x scale 0.95 y scale 0.95 z scale 0.95 remap
Changing box ...
  orthogonal box = (201.94774 180.99762 180.99762) to (998.05226 1019.0024 1019.0024)
  orthogonal box = (201.94774 201.94774 180.99762) to (998.05226 998.05226 1019.0024)
  orthogonal box = (201.94774 201.94774 201.94774) to (998.05226 998.05226 998.05226)
run 8000
Per MPI rank memory allocation (min/avg/max) = 11.63 | 11.65 | 11.68 Mbytes
Step PotEng Temp Press KinEng Lx Ly Lz Pzz S/CPU Density 
 1062001    2563.8418    333.28542    4.8948759    6166.4095    796.10452    796.10452    796.10452    4.8141936            0 0.0022925672 
 1070001    465.66091    335.09441 -0.029978895    6199.8793    796.10452    796.10452    796.10452  0.061320646    1479.2826 0.0022925672 
Loop time of 5.40815 on 6 procs for 8000 steps with 6208 atoms

Performance: 1278.072 ns/day, 0.019 hours/ns, 1479.250 timesteps/s
99.7% CPU use with 6 MPI tasks x no OpenMP threads

MPI task timing breakdown:
Section |  min time  |  avg time  |  max time  |%varavg| %total
---------------------------------------------------------------
Pair    | 2.0808     | 2.8555     | 3.9733     |  45.0 | 52.80
Bond    | 0.066295   | 0.087833   | 0.12098    |   7.5 |  1.62
Neigh   | 0.3718     | 0.37494    | 0.37821    |   0.4 |  6.93
Comm    | 0.31523    | 1.5948     | 2.4718     |  68.7 | 29.49
Output  | 4.1008e-05 | 8.1817e-05 | 0.00018692 |   0.0 |  0.00
Modify  | 0.33402    | 0.44205    | 0.60584    |  16.6 |  8.17
Other   |            | 0.05296    |            |       |  0.98

Nlocal:        1034.67 ave        1392 max         797 min
Histogram: 3 0 1 0 0 0 0 0 0 2
Nghost:        862.667 ave         971 max         765 min
Histogram: 1 0 2 0 1 0 0 0 1 1
Neighs:        17234.3 ave       24083 max       12322 min
Histogram: 2 1 0 1 0 0 0 0 0 2

Total # of neighbors = 103406
Ave neighs/atom = 16.656894
Ave special neighs/atom = 1.9793814
Neighbor list builds = 309
Dangerous builds = 0

if "${myDensity} > 1.0" then "jump SELF break"

next a
jump SELF loop
variable a loop 1000
change_box all x scale 0.95 y scale 0.95 z scale 0.95 remap
Changing box ...
  orthogonal box = (221.85035 201.94774 201.94774) to (978.14965 998.05226 998.05226)
  orthogonal box = (221.85035 221.85035 201.94774) to (978.14965 978.14965 998.05226)
  orthogonal box = (221.85035 221.85035 221.85035) to (978.14965 978.14965 978.14965)
run 8000
Per MPI rank memory allocation (min/avg/max) = 11.63 | 11.65 | 11.68 Mbytes
Step PotEng Temp Press KinEng Lx Ly Lz Pzz S/CPU Density 
 1070001    2581.0382    335.09441    5.7800937    6199.8793    756.29929    756.29929    756.29929    5.8576921            0 0.0026739375 
 1078001    470.26701    331.29788  0.065643533    6129.6362    756.29929    756.29929    756.29929  0.091234098    1535.9488 0.0026739375 
Loop time of 5.20863 on 6 procs for 8000 steps with 6208 atoms

Performance: 1327.030 ns/day, 0.018 hours/ns, 1535.914 timesteps/s
99.7% CPU use with 6 MPI tasks x no OpenMP threads

MPI task timing breakdown:
Section |  min time  |  avg time  |  max time  |%varavg| %total
---------------------------------------------------------------
Pair    | 2.1052     | 2.6683     | 3.7561     |  39.4 | 51.23
Bond    | 0.067725   | 0.087786   | 0.11964    |   7.1 |  1.69
Neigh   | 0.35742    | 0.36075    | 0.36396    |   0.4 |  6.93
Comm    | 0.35769    | 1.5988     | 2.2431     |  58.9 | 30.69
Output  | 3.9101e-05 | 7.7486e-05 | 0.00017691 |   0.0 |  0.00
Modify  | 0.34132    | 0.44168    | 0.59792    |  15.7 |  8.48
Other   |            | 0.05123    |            |       |  0.98

Nlocal:        1034.67 ave        1408 max         773 min
Histogram: 1 1 2 0 0 0 0 0 1 1
Nghost:        849.000 ave         953 max         784 min
Histogram: 3 0 0 0 1 0 0 1 0 1
Neighs:        16667.3 ave       22903 max       14113 min
Histogram: 3 1 0 0 0 1 0 0 0 1

Total # of neighbors = 100004
Ave neighs/atom = 16.108892
Ave special neighs/atom = 1.9793814
Neighbor list builds = 307
Dangerous builds = 0

if "${myDensity} > 1.0" then "jump SELF break"

next a
jump SELF loop
variable a loop 1000
change_box all x scale 0.95 y scale 0.95 z scale 0.95 remap
Changing box ...
  orthogonal box = (240.75784 221.85035 221.85035) to (959.24216 978.14965 978.14965)
  orthogonal box = (240.75784 240.75784 221.85035) to (959.24216 959.24216 978.14965)
  orthogonal box = (240.75784 240.75784 240.75784) to (959.24216 959.24216 959.24216)
run 8000
Per MPI rank memory allocation (min/avg/max) = 11.63 | 11.65 | 11.68 Mbytes
Step PotEng Temp Press KinEng Lx Ly Lz Pzz S/CPU Density 
 1078001    2675.4634    331.29788    6.8206061    6129.6362    718.48433    718.48433    718.48433    6.7987219            0 0.0031187491 
 1086001    477.07597    332.85825   0.11918008    6158.5061    718.48433    718.48433    718.48433  0.084751566    1571.0531 0.0031187491 
Loop time of 5.09225 on 6 procs for 8000 steps with 6208 atoms

Performance: 1357.358 ns/day, 0.018 hours/ns, 1571.016 timesteps/s
99.6% CPU use with 6 MPI tasks x no OpenMP threads

MPI task timing breakdown:
Section |  min time  |  avg time  |  max time  |%varavg| %total
---------------------------------------------------------------
Pair    | 2.1081     | 2.7319     | 3.6346     |  34.9 | 53.65
Bond    | 0.063181   | 0.087745   | 0.11836    |   6.9 |  1.72
Neigh   | 0.35683    | 0.36202    | 0.36569    |   0.5 |  7.11
Comm    | 0.36893    | 1.4192     | 2.1594     |  56.7 | 27.87
Output  | 3.8862e-05 | 7.84e-05   | 0.00018096 |   0.0 |  0.00
Modify  | 0.31763    | 0.44201    | 0.59368    |  15.3 |  8.68
Other   |            | 0.04927    |            |       |  0.97

Nlocal:        1034.67 ave        1410 max         763 min
Histogram: 1 2 0 1 0 0 0 0 1 1
Nghost:        910.333 ave        1236 max         710 min
Histogram: 1 1 2 0 0 0 1 0 0 1
Neighs:        17309.5 ave       22677 max       13946 min
Histogram: 2 1 1 0 0 0 0 0 1 1

Total # of neighbors = 103857
Ave neighs/atom = 16.729543
Ave special neighs/atom = 1.9793814
Neighbor list builds = 318
Dangerous builds = 0

if "${myDensity} > 1.0" then "jump SELF break"

next a
jump SELF loop
variable a loop 1000
change_box all x scale 0.95 y scale 0.95 z scale 0.95 remap
Changing box ...
  orthogonal box = (258.71994 240.75784 240.75784) to (941.28006 959.24216 959.24216)
  orthogonal box = (258.71994 258.71994 240.75784) to (941.28006 941.28006 959.24216)
  orthogonal box = (258.71994 258.71994 258.71994) to (941.28006 941.28006 941.28006)
run 8000
Per MPI rank memory allocation (min/avg/max) = 11.63 | 11.65 | 11.68 Mbytes
Step PotEng Temp Press KinEng Lx Ly Lz Pzz S/CPU Density 
 1086001    2718.4182    332.85825    8.0176796    6158.5061    682.56011    682.56011    682.56011    8.1229631            0 0.0036375554 
 1094001     451.1154    331.74858  0.046100698     6137.975    682.56011    682.56011    682.56011   0.12763057    1625.4285 0.0036375554 
Loop time of 4.92181 on 6 procs for 8000 steps with 6208 atoms

Performance: 1404.360 ns/day, 0.017 hours/ns, 1625.417 timesteps/s
99.7% CPU use with 6 MPI tasks x no OpenMP threads

MPI task timing breakdown:
Section |  min time  |  avg time  |  max time  |%varavg| %total
---------------------------------------------------------------
Pair    | 2.0952     | 2.7531     | 3.536      |  32.0 | 55.94
Bond    | 0.064569   | 0.087621   | 0.11341    |   6.4 |  1.78
Neigh   | 0.33511    | 0.34063    | 0.34415    |   0.5 |  6.92
Comm    | 0.34759    | 1.2527     | 2.0181     |  55.6 | 25.45
Output  | 3.9101e-05 | 6.2505e-05 | 9.1076e-05 |   0.0 |  0.00
Modify  | 0.32672    | 0.44162    | 0.56747    |  14.1 |  8.97
Other   |            | 0.0461     |            |       |  0.94

Nlocal:        1034.67 ave        1330 max         732 min
Histogram: 1 1 0 1 0 1 0 0 0 2
Nghost:        999.667 ave        1386 max         768 min
Histogram: 2 0 1 1 0 1 0 0 0 1
Neighs:        17615.5 ave       23324 max       12237 min
Histogram: 1 0 1 1 0 1 0 1 0 1

Total # of neighbors = 105693
Ave neighs/atom = 17.025290
Ave special neighs/atom = 1.9793814
Neighbor list builds = 310
Dangerous builds = 0

if "${myDensity} > 1.0" then "jump SELF break"

next a
jump SELF loop
variable a loop 1000
change_box all x scale 0.95 y scale 0.95 z scale 0.95 remap
Changing box ...
  orthogonal box = (275.78395 258.71994 258.71994) to (924.21605 941.28006 941.28006)
  orthogonal box = (275.78395 275.78395 258.71994) to (924.21605 924.21605 941.28006)
  orthogonal box = (275.78395 275.78395 275.78395) to (924.21605 924.21605 924.21605)
run 8000
Per MPI rank memory allocation (min/avg/max) = 11.63 | 11.65 | 11.68 Mbytes
Step PotEng Temp Press KinEng Lx Ly Lz Pzz S/CPU Density 
 1094001    2651.9449    331.74858    9.3290817     6137.975    648.43211    648.43211    648.43211     9.333549            0 0.0042426656 
 1102001    442.80778    340.97092   0.12056864    6308.6057    648.43211    648.43211    648.43211  0.090487946    1479.4453 0.0042426656 
Loop time of 5.40757 on 6 procs for 8000 steps with 6208 atoms

Performance: 1278.209 ns/day, 0.019 hours/ns, 1479.409 timesteps/s
99.7% CPU use with 6 MPI tasks x no OpenMP threads

MPI task timing breakdown:
Section |  min time  |  avg time  |  max time  |%varavg| %total
---------------------------------------------------------------
Pair    | 1.955      | 2.8468     | 3.9741     |  38.5 | 52.64
Bond    | 0.058868   | 0.087617   | 0.11988    |   7.1 |  1.62
Neigh   | 0.36028    | 0.36594    | 0.36936    |   0.5 |  6.77
Comm    | 0.32637    | 1.6125     | 2.6427     |  58.9 | 29.82
Output  | 0.0024192  | 0.002639   | 0.0029259  |   0.3 |  0.05
Modify  | 0.29732    | 0.44185    | 0.60336    |  15.8 |  8.17
Other   |            | 0.05017    |            |       |  0.93

Nlocal:        1034.67 ave        1492 max         661 min
Histogram: 1 1 0 0 2 0 1 0 0 1
Nghost:        1041.83 ave        1550 max         831 min
Histogram: 1 2 2 0 0 0 0 0 0 1
Neighs:        17753.3 ave       25912 max       11869 min
Histogram: 1 1 0 1 1 1 0 0 0 1

Total # of neighbors = 106520
Ave neighs/atom = 17.158505
Ave special neighs/atom = 1.9793814
Neighbor list builds = 315
Dangerous builds = 0

if "${myDensity} > 1.0" then "jump SELF break"

next a
jump SELF loop
variable a loop 1000
change_box all x scale 0.95 y scale 0.95 z scale 0.95 remap
Changing box ...
  orthogonal box = (291.99475 275.78395 275.78395) to (908.00525 924.21605 924.21605)
  orthogonal box = (291.99475 291.99475 275.78395) to (908.00525 908.00525 924.21605)
  orthogonal box = (291.99475 291.99475 291.99475) to (908.00525 908.00525 908.00525)
run 8000
Per MPI rank memory allocation (min/avg/max) = 11.79 | 11.81 | 11.86 Mbytes
Step PotEng Temp Press KinEng Lx Ly Lz Pzz S/CPU Density 
 1102001    2657.7606    340.97092    10.920868    6308.6057     616.0105     616.0105     616.0105    10.703148            0 0.0049484363 
 1110001    498.31861    327.37366   0.27249598    6057.0309     616.0105     616.0105     616.0105   0.44068718    1618.0906 0.0049484363 
Loop time of 4.94422 on 6 procs for 8000 steps with 6208 atoms

Performance: 1397.997 ns/day, 0.017 hours/ns, 1618.052 timesteps/s
99.7% CPU use with 6 MPI tasks x no OpenMP threads

MPI task timing breakdown:
Section |  min time  |  avg time  |  max time  |%varavg| %total
---------------------------------------------------------------
Pair    | 2.1145     | 2.7522     | 3.5734     |  30.3 | 55.67
Bond    | 0.065867   | 0.087859   | 0.11447    |   6.0 |  1.78
Neigh   | 0.33252    | 0.33834    | 0.3425     |   0.6 |  6.84
Comm    | 0.32852    | 1.2802     | 2.0236     |  52.0 | 25.89
Output  | 4.1962e-05 | 7.4665e-05 | 0.00016689 |   0.0 |  0.00
Modify  | 0.32987    | 0.44171    | 0.57511    |  13.4 |  8.93
Other   |            | 0.04383    |            |       |  0.89

Nlocal:        1034.67 ave        1330 max         772 min
Histogram: 2 0 0 0 2 0 0 0 1 1
Nghost:        1106.00 ave        1582 max         865 min
Histogram: 2 1 0 1 1 0 0 0 0 1
Neighs:        17705.0 ave       22911 max       14115 min
Histogram: 2 0 0 1 1 0 1 0 0 1

Total # of neighbors = 106230
Ave neighs/atom = 17.111791
Ave special neighs/atom = 1.9793814
Neighbor list builds = 310
Dangerous builds = 0

if "${myDensity} > 1.0" then "jump SELF break"

next a
jump SELF loop
variable a loop 1000
change_box all x scale 0.95 y scale 0.95 z scale 0.95 remap
Changing box ...
  orthogonal box = (307.39501 291.99475 291.99475) to (892.60499 908.00525 908.00525)
  orthogonal box = (307.39501 307.39501 291.99475) to (892.60499 892.60499 908.00525)
  orthogonal box = (307.39501 307.39501 307.39501) to (892.60499 892.60499 892.60499)
run 8000
Per MPI rank memory allocation (min/avg/max) = 11.79 | 11.82 | 11.86 Mbytes
Step PotEng Temp Press KinEng Lx Ly Lz Pzz S/CPU Density 
 1110001    2817.5936    327.37366    12.940619    6057.0309    585.20997    585.20997    585.20997    13.075378            0 0.0057716126 
 1118001    414.05248    328.14049   0.10823657    6071.2186    585.20997    585.20997    585.20997   0.17449418     1513.714 0.0057716126 
Loop time of 5.28515 on 6 procs for 8000 steps with 6208 atoms

Performance: 1307.816 ns/day, 0.018 hours/ns, 1513.676 timesteps/s
99.7% CPU use with 6 MPI tasks x no OpenMP threads

MPI task timing breakdown:
Section |  min time  |  avg time  |  max time  |%varavg| %total
---------------------------------------------------------------
Pair    | 1.9889     | 2.8243     | 3.8792     |  38.0 | 53.44
Bond    | 0.063946   | 0.08772    | 0.116      |   6.4 |  1.66
Neigh   | 0.35382    | 0.35959    | 0.36416    |   0.7 |  6.80
Comm    | 0.33674    | 1.5279     | 2.4761     |  59.0 | 28.91
Output  | 3.8147e-05 | 7.6413e-05 | 0.00018001 |   0.0 |  0.00
Modify  | 0.32056    | 0.44059    | 0.58149    |  14.2 |  8.34
Other   |            | 0.04493    |            |       |  0.85

Nlocal:        1034.67 ave        1372 max         724 min
Histogram: 1 1 0 0 1 1 0 1 0 1
Nghost:        1207.83 ave        1819 max         929 min
Histogram: 1 2 1 1 0 0 0 0 0 1
Neighs:        17572.3 ave       25455 max       11491 min
Histogram: 1 1 0 1 1 0 1 0 0 1

Total # of neighbors = 105434
Ave neighs/atom = 16.983570
Ave special neighs/atom = 1.9793814
Neighbor list builds = 312
Dangerous builds = 0

if "${myDensity} > 1.0" then "jump SELF break"

next a
jump SELF loop
variable a loop 1000
change_box all x scale 0.95 y scale 0.95 z scale 0.95 remap
Changing box ...
  orthogonal box = (322.02526 307.39501 307.39501) to (877.97474 892.60499 892.60499)
  orthogonal box = (322.02526 322.02526 307.39501) to (877.97474 877.97474 892.60499)
  orthogonal box = (322.02526 322.02526 322.02526) to (877.97474 877.97474 877.97474)
run 8000
Per MPI rank memory allocation (min/avg/max) = 11.79 | 11.82 | 11.87 Mbytes
Step PotEng Temp Press KinEng Lx Ly Lz Pzz S/CPU Density 
 1118001    2610.8016    328.14049    14.685577    6071.2186    555.94948    555.94948    555.94948    14.976557            0 0.0067317249 
 1126001    401.52469    335.37011   0.10742036    6204.9803    555.94948    555.94948    555.94948 -0.0044285121    1514.0097 0.0067317249 
Loop time of 5.2841 on 6 procs for 8000 steps with 6208 atoms

Performance: 1308.075 ns/day, 0.018 hours/ns, 1513.976 timesteps/s
99.7% CPU use with 6 MPI tasks x no OpenMP threads

MPI task timing breakdown:
Section |  min time  |  avg time  |  max time  |%varavg| %total
---------------------------------------------------------------
Pair    | 2.0935     | 2.8542     | 3.9214     |  36.1 | 54.01
Bond    | 0.063102   | 0.087776   | 0.1126     |   5.7 |  1.66
Neigh   | 0.33196    | 0.33717    | 0.3409     |   0.6 |  6.38
Comm    | 0.33599    | 1.5222     | 2.3991     |  55.7 | 28.81
Output  | 4.0054e-05 | 7.5261e-05 | 0.00016618 |   0.0 |  0.00
Modify  | 0.31867    | 0.44126    | 0.56354    |  12.6 |  8.35
Other   |            | 0.04144    |            |       |  0.78

Nlocal:        1034.67 ave        1370 max         732 min
Histogram: 1 0 2 0 0 1 0 1 0 1
Nghost:        1257.50 ave        1664 max        1012 min
Histogram: 1 3 0 0 0 0 0 0 1 1
Neighs:        18455.5 ave       25520 max       14371 min
Histogram: 3 0 0 0 0 2 0 0 0 1

Total # of neighbors = 110733
Ave neighs/atom = 17.837146
Ave special neighs/atom = 1.9793814
Neighbor list builds = 301
Dangerous builds = 0

if "${myDensity} > 1.0" then "jump SELF break"

next a
jump SELF loop
variable a loop 1000
change_box all x scale 0.95 y scale 0.95 z scale 0.95 remap
Changing box ...
  orthogonal box = (335.92400 322.02526 322.02526) to (864.07600 877.97474 877.97474)
  orthogonal box = (335.92400 335.92400 322.02526) to (864.07600 864.07600 877.97474)
  orthogonal box = (335.92400 335.92400 335.92400) to (864.07600 864.07600 864.07600)
run 8000
Per MPI rank memory allocation (min/avg/max) = 11.79 | 11.82 | 11.87 Mbytes
Step PotEng Temp Press KinEng Lx Ly Lz Pzz S/CPU Density 
 1126001    2597.0281    335.37011    17.244235    6204.9803      528.152      528.152      528.152    17.191695            0 0.0078515525 
 1134001    377.87554    338.08522   0.21991863    6255.2149      528.152      528.152      528.152  0.082988941    1450.2238 0.0078515525 
Loop time of 5.51652 on 6 procs for 8000 steps with 6208 atoms

Performance: 1252.964 ns/day, 0.019 hours/ns, 1450.190 timesteps/s
99.7% CPU use with 6 MPI tasks x no OpenMP threads

MPI task timing breakdown:
Section |  min time  |  avg time  |  max time  |%varavg| %total
---------------------------------------------------------------
Pair    | 2.2588     | 2.9398     | 4.1019     |  35.8 | 53.29
Bond    | 0.064073   | 0.087755   | 0.11345    |   5.4 |  1.59
Neigh   | 0.36217    | 0.36763    | 0.37143    |   0.6 |  6.66
Comm    | 0.35142    | 1.6365     | 2.4285     |  54.0 | 29.67
Output  | 4.3869e-05 | 7.836e-05  | 0.00017715 |   0.0 |  0.00
Modify  | 0.32286    | 0.44093    | 0.56871    |  12.1 |  7.99
Other   |            | 0.04384    |            |       |  0.79

Nlocal:        1034.67 ave        1353 max         738 min
Histogram: 1 0 1 1 0 1 1 0 0 1
Nghost:        1296.17 ave        1705 max        1036 min
Histogram: 1 1 1 1 0 1 0 0 0 1
Neighs:        19308.0 ave       27821 max       14116 min
Histogram: 2 0 0 2 0 1 0 0 0 1

Total # of neighbors = 115848
Ave neighs/atom = 18.661082
Ave special neighs/atom = 1.9793814
Neighbor list builds = 316
Dangerous builds = 0

if "${myDensity} > 1.0" then "jump SELF break"

next a
jump SELF loop
variable a loop 1000
change_box all x scale 0.95 y scale 0.95 z scale 0.95 remap
Changing box ...
  orthogonal box = (349.12780 335.92400 335.92400) to (850.87220 864.07600 864.07600)
  orthogonal box = (349.12780 349.12780 335.92400) to (850.87220 850.87220 864.07600)
  orthogonal box = (349.12780 349.12780 349.12780) to (850.87220 850.87220 850.87220)
run 8000
Per MPI rank memory allocation (min/avg/max) = 11.79 | 11.82 | 11.87 Mbytes
Step PotEng Temp Press KinEng Lx Ly Lz Pzz S/CPU Density 
 1134001    2600.0533    338.08522    20.240591    6255.2149     501.7444     501.7444     501.7444    20.095193            0 0.0091576644 
 1142001    437.02459    327.73013  -0.39343213    6063.6261     501.7444     501.7444     501.7444  -0.42126417     1520.468 0.0091576644 
Loop time of 5.26167 on 6 procs for 8000 steps with 6208 atoms

Performance: 1313.653 ns/day, 0.018 hours/ns, 1520.431 timesteps/s
99.7% CPU use with 6 MPI tasks x no OpenMP threads

MPI task timing breakdown:
Section |  min time  |  avg time  |  max time  |%varavg| %total
---------------------------------------------------------------
Pair    | 2.3534     | 2.9459     | 3.85       |  30.5 | 55.99
Bond    | 0.063237   | 0.088297   | 0.1115     |   5.4 |  1.68
Neigh   | 0.35139    | 0.3564     | 0.3593     |   0.5 |  6.77
Comm    | 0.36981    | 1.3862     | 2.0968     |  51.1 | 26.34
Output  | 4.1962e-05 | 8.2811e-05 | 0.00018406 |   0.0 |  0.00
Modify  | 0.31742    | 0.44274    | 0.55877    |  12.1 |  8.41
Other   |            | 0.04208    |            |       |  0.80

Nlocal:        1034.67 ave        1317 max         744 min
Histogram: 1 0 2 0 0 0 0 2 0 1
Nghost:        1380.17 ave        1632 max        1201 min
Histogram: 2 0 0 1 1 0 0 1 0 1
Neighs:        18679.3 ave       24376 max       14485 min
Histogram: 1 1 1 0 0 1 1 0 0 1

Total # of neighbors = 112076
Ave neighs/atom = 18.053479
Ave special neighs/atom = 1.9793814
Neighbor list builds = 313
Dangerous builds = 0

if "${myDensity} > 1.0" then "jump SELF break"

next a
jump SELF loop
variable a loop 1000
change_box all x scale 0.95 y scale 0.95 z scale 0.95 remap
Changing box ...
  orthogonal box = (361.67141 349.12780 349.12780) to (838.32859 850.87220 850.87220)
  orthogonal box = (361.67141 361.67141 349.12780) to (838.32859 838.32859 850.87220)
  orthogonal box = (361.67141 361.67141 361.67141) to (838.32859 838.32859 838.32859)
run 8000
Per MPI rank memory allocation (min/avg/max) = 11.79 | 11.82 | 11.87 Mbytes
Step PotEng Temp Press KinEng Lx Ly Lz Pzz S/CPU Density 
 1142001     2495.127    327.73013    22.827315    6063.6261    476.65718    476.65718    476.65718    22.733426            0  0.010681049 
 1150001    334.01213    334.56021   0.60567215    6189.9956    476.65718    476.65718    476.65718   0.94796644    1574.7433  0.010681049 
Loop time of 5.08034 on 6 procs for 8000 steps with 6208 atoms

Performance: 1360.540 ns/day, 0.018 hours/ns, 1574.699 timesteps/s
99.7% CPU use with 6 MPI tasks x no OpenMP threads

MPI task timing breakdown:
Section |  min time  |  avg time  |  max time  |%varavg| %total
---------------------------------------------------------------
Pair    | 2.2525     | 2.9503     | 3.6637     |  33.8 | 58.07
Bond    | 0.062963   | 0.088258   | 0.10676    |   5.7 |  1.74
Neigh   | 0.3396     | 0.34485    | 0.34836    |   0.5 |  6.79
Comm    | 0.41121    | 1.2148     | 1.9696     |  60.0 | 23.91
Output  | 4.6968e-05 | 8.4798e-05 | 0.000175   |   0.0 |  0.00
Modify  | 0.3166     | 0.44309    | 0.53705    |  12.8 |  8.72
Other   |            | 0.03897    |            |       |  0.77

Nlocal:        1034.67 ave        1303 max         733 min
Histogram: 1 0 2 0 0 0 0 0 2 1
Nghost:        1489.50 ave        1746 max        1063 min
Histogram: 1 0 0 0 0 1 1 1 1 1
Neighs:        18925.5 ave       23722 max       12112 min
Histogram: 1 0 1 1 0 0 0 0 0 3

Total # of neighbors = 113553
Ave neighs/atom = 18.291398
Ave special neighs/atom = 1.9793814
Neighbor list builds = 307
Dangerous builds = 0

if "${myDensity} > 1.0" then "jump SELF break"

next a
jump SELF loop
variable a loop 1000
change_box all x scale 0.95 y scale 0.95 z scale 0.95 remap
Changing box ...
  orthogonal box = (373.58784 361.67141 361.67141) to (826.41216 838.32859 838.32859)
  orthogonal box = (373.58784 373.58784 361.67141) to (826.41216 826.41216 838.32859)
  orthogonal box = (373.58784 373.58784 373.58784) to (826.41216 826.41216 826.41216)
run 8000
Per MPI rank memory allocation (min/avg/max) = 11.79 | 11.82 | 11.87 Mbytes
Step PotEng Temp Press KinEng Lx Ly Lz Pzz S/CPU Density 
 1150001    2625.6802    334.56021    27.763568    6189.9956    452.82432    452.82432    452.82432    28.377897            0   0.01245785 
 1158001    401.35821    339.68324   0.68772111    6284.7813    452.82432    452.82432    452.82432   0.76680956    1457.3777   0.01245785 
Loop time of 5.48943 on 6 procs for 8000 steps with 6208 atoms

Performance: 1259.146 ns/day, 0.019 hours/ns, 1457.345 timesteps/s
99.7% CPU use with 6 MPI tasks x no OpenMP threads

MPI task timing breakdown:
Section |  min time  |  avg time  |  max time  |%varavg| %total
---------------------------------------------------------------
Pair    | 2.2477     | 3.0426     | 4.0632     |  36.8 | 55.43
Bond    | 0.059876   | 0.088244   | 0.10804    |   6.0 |  1.61
Neigh   | 0.36956    | 0.37407    | 0.37676    |   0.4 |  6.81
Comm    | 0.398      | 1.5037     | 2.3454     |  58.8 | 27.39
Output  | 4.0054e-05 | 7.2877e-05 | 0.00015783 |   0.0 |  0.00
Modify  | 0.30007    | 0.4433     | 0.5442     |  13.4 |  8.08
Other   |            | 0.03751    |            |       |  0.68

Nlocal:        1034.67 ave        1291 max         628 min
Histogram: 1 0 0 0 1 1 0 1 0 2
Nghost:        1621.67 ave        1915 max        1235 min
Histogram: 1 0 0 0 2 0 1 0 0 2
Neighs:        19515.5 ave       28131 max       13412 min
Histogram: 1 1 1 0 1 0 1 0 0 1

Total # of neighbors = 117093
Ave neighs/atom = 18.861630
Ave special neighs/atom = 1.9793814
Neighbor list builds = 316
Dangerous builds = 0

if "${myDensity} > 1.0" then "jump SELF break"

next a
jump SELF loop
variable a loop 1000
change_box all x scale 0.95 y scale 0.95 z scale 0.95 remap
Changing box ...
  orthogonal box = (384.90845 373.58784 373.58784) to (815.09155 826.41216 826.41216)
  orthogonal box = (384.90845 384.90845 373.58784) to (815.09155 815.09155 826.41216)
  orthogonal box = (384.90845 384.90845 384.90845) to (815.09155 815.09155 815.09155)
run 8000
Per MPI rank memory allocation (min/avg/max) = 11.79 | 11.82 | 11.87 Mbytes
Step PotEng Temp Press KinEng Lx Ly Lz Pzz S/CPU Density 
 1158001    2690.8936    339.68324    32.502214    6284.7813    430.18311    430.18311    430.18311    33.024742            0  0.014530223 
 1166001    485.35166    324.75774   0.04170889    6008.6314    430.18311    430.18311    430.18311 -0.021482272     1382.329  0.014530223 
Loop time of 5.78745 on 6 procs for 8000 steps with 6208 atoms

Performance: 1194.308 ns/day, 0.020 hours/ns, 1382.301 timesteps/s
99.7% CPU use with 6 MPI tasks x no OpenMP threads

MPI task timing breakdown:
Section |  min time  |  avg time  |  max time  |%varavg| %total
---------------------------------------------------------------
Pair    | 1.9776     | 2.9399     | 4.3172     |  40.6 | 50.80
Bond    | 0.057116   | 0.088343   | 0.11094    |   5.6 |  1.53
Neigh   | 0.38401    | 0.38818    | 0.3903     |   0.3 |  6.71
Comm    | 0.40147    | 1.8865     | 2.9983     |  55.8 | 32.60
Output  | 3.9101e-05 | 6.9777e-05 | 0.00016713 |   0.0 |  0.00
Modify  | 0.28756    | 0.4425     | 0.55337    |  12.3 |  7.65
Other   |            | 0.04194    |            |       |  0.72

Nlocal:        1034.67 ave        1271 max         688 min
Histogram: 1 0 0 0 0 2 0 2 0 1
Nghost:        1646.33 ave        1858 max        1324 min
Histogram: 1 0 0 0 1 1 0 1 1 1
Neighs:        18227.8 ave       27269 max       11894 min
Histogram: 1 0 1 1 2 0 0 0 0 1

Total # of neighbors = 109367
Ave neighs/atom = 17.617107
Ave special neighs/atom = 1.9793814
Neighbor list builds = 312
Dangerous builds = 0

if "${myDensity} > 1.0" then "jump SELF break"

next a
jump SELF loop
variable a loop 1000
change_box all x scale 0.95 y scale 0.95 z scale 0.95 remap
Changing box ...
  orthogonal box = (395.66302 384.90845 384.90845) to (804.33698 815.09155 815.09155)
  orthogonal box = (395.66302 395.66302 384.90845) to (804.33698 804.33698 815.09155)
  orthogonal box = (395.66302 395.66302 395.66302) to (804.33698 804.33698 804.33698)
run 8000
Per MPI rank memory allocation (min/avg/max) = 11.79 | 11.82 | 11.87 Mbytes
Step PotEng Temp Press KinEng Lx Ly Lz Pzz S/CPU Density 
 1166001    2658.0396    324.75774    36.859297    6008.6314    408.67395    408.67395    408.67395    37.159887            0  0.016947337 
 1174001    357.16678    325.85604   -0.2687579     6028.952    408.67395    408.67395    408.67395   0.21484613    1441.0584  0.016947337 
Loop time of 5.5516 on 6 procs for 8000 steps with 6208 atoms

Performance: 1245.046 ns/day, 0.019 hours/ns, 1441.025 timesteps/s
99.7% CPU use with 6 MPI tasks x no OpenMP threads

MPI task timing breakdown:
Section |  min time  |  avg time  |  max time  |%varavg| %total
---------------------------------------------------------------
Pair    | 2.1895     | 2.9892     | 4.115      |  34.5 | 53.84
Bond    | 0.060481   | 0.08837    | 0.10639    |   5.0 |  1.59
Neigh   | 0.36457    | 0.36737    | 0.36889    |   0.2 |  6.62
Comm    | 0.41127    | 1.6242     | 2.5568     |  51.6 | 29.26
Output  | 4.0054e-05 | 7.4148e-05 | 0.00018001 |   0.0 |  0.00
Modify  | 0.30324    | 0.44351    | 0.53312    |  11.2 |  7.99
Other   |            | 0.03884    |            |       |  0.70

Nlocal:        1034.67 ave        1303 max         690 min
Histogram: 1 0 0 0 1 2 0 1 0 1
Nghost:        1674.50 ave        1829 max        1558 min
Histogram: 1 1 0 2 0 0 0 1 0 1
Neighs:        19115.8 ave       26897 max       13809 min
Histogram: 1 1 0 1 2 0 0 0 0 1

Total # of neighbors = 114695
Ave neighs/atom = 18.475354
Ave special neighs/atom = 1.9793814
Neighbor list builds = 302
Dangerous builds = 0

if "${myDensity} > 1.0" then "jump SELF break"

next a
jump SELF loop
variable a loop 1000
change_box all x scale 0.95 y scale 0.95 z scale 0.95 remap
Changing box ...
  orthogonal box = (405.87987 395.66302 395.66302) to (794.12013 804.33698 804.33698)
  orthogonal box = (405.87987 405.87987 395.66302) to (794.12013 794.12013 804.33698)
  orthogonal box = (405.87987 405.87987 405.87987) to (794.12013 794.12013 794.12013)
run 8000
Per MPI rank memory allocation (min/avg/max) = 11.79 | 11.82 | 11.87 Mbytes
Step PotEng Temp Press KinEng Lx Ly Lz Pzz S/CPU Density 
 1174001    2481.7653    325.85604      42.6688     6028.952    388.24025    388.24025    388.24025    43.065326            0   0.01976654 
 1182001     288.6336    331.14319   0.19789828    6126.7743    388.24025    388.24025    388.24025    0.8678762    1360.3339   0.01976654 
Loop time of 5.88104 on 6 procs for 8000 steps with 6208 atoms

Performance: 1175.303 ns/day, 0.020 hours/ns, 1360.304 timesteps/s
99.7% CPU use with 6 MPI tasks x no OpenMP threads

MPI task timing breakdown:
Section |  min time  |  avg time  |  max time  |%varavg| %total
---------------------------------------------------------------
Pair    | 2.1083     | 3.1548     | 4.3598     |  39.6 | 53.64
Bond    | 0.058259   | 0.08864    | 0.11349    |   5.9 |  1.51
Neigh   | 0.38657    | 0.38894    | 0.39043    |   0.2 |  6.61
Comm    | 0.43429    | 1.7584     | 2.9498     |  59.1 | 29.90
Output  | 4.1962e-05 | 8.3804e-05 | 0.00018692 |   0.0 |  0.00
Modify  | 0.29294    | 0.44388    | 0.5666     |  13.1 |  7.55
Other   |            | 0.04628    |            |       |  0.79

Nlocal:        1034.67 ave        1422 max         697 min
Histogram: 1 0 0 2 1 0 1 0 0 1
Nghost:        1754.33 ave        2082 max        1460 min
Histogram: 1 0 1 1 0 2 0 0 0 1
Neighs:        20727.3 ave       30535 max       13471 min
Histogram: 1 0 1 1 2 0 0 0 0 1

Total # of neighbors = 124364
Ave neighs/atom = 20.032861
Ave special neighs/atom = 1.9793814
Neighbor list builds = 307
Dangerous builds = 0

if "${myDensity} > 1.0" then "jump SELF break"

next a
jump SELF loop
variable a loop 1000
change_box all x scale 0.95 y scale 0.95 z scale 0.95 remap
Changing box ...
  orthogonal box = (415.58588 405.87987 405.87987) to (784.41412 794.12013 794.12013)
  orthogonal box = (415.58588 415.58588 405.87987) to (784.41412 784.41412 794.12013)
  orthogonal box = (415.58588 415.58588 415.58588) to (784.41412 784.41412 784.41412)
run 8000
Per MPI rank memory allocation (min/avg/max) = 11.79 | 11.82 | 11.87 Mbytes
Step PotEng Temp Press KinEng Lx Ly Lz Pzz S/CPU Density 
 1182001    2483.1712    331.14319    50.647932    6126.7743    368.82824    368.82824    368.82824     51.62169            0  0.023054719 
 1190001    249.16232     335.1994   0.51709146    6201.8218    368.82824    368.82824    368.82824   0.17944825    1308.3076  0.023054719 
Loop time of 6.11489 on 6 procs for 8000 steps with 6208 atoms

Performance: 1130.355 ns/day, 0.021 hours/ns, 1308.281 timesteps/s
99.7% CPU use with 6 MPI tasks x no OpenMP threads

MPI task timing breakdown:
Section |  min time  |  avg time  |  max time  |%varavg| %total
---------------------------------------------------------------
Pair    | 2.5616     | 3.3605     | 4.5117     |  34.2 | 54.96
Bond    | 0.069433   | 0.088653   | 0.11277    |   4.7 |  1.45
Neigh   | 0.41203    | 0.41442    | 0.41613    |   0.3 |  6.78
Comm    | 0.49404    | 1.7567     | 2.6461     |  52.1 | 28.73
Output  | 4.1008e-05 | 7.844e-05  | 0.00017691 |   0.0 |  0.00
Modify  | 0.34939    | 0.44508    | 0.5647     |  10.5 |  7.28
Other   |            | 0.04946    |            |       |  0.81

Nlocal:        1034.67 ave        1299 max         865 min
Histogram: 1 1 1 1 0 1 0 0 0 1
Nghost:        1936.67 ave        2203 max        1723 min
Histogram: 1 0 1 1 0 2 0 0 0 1
Neighs:        21663.8 ave       29298 max       16625 min
Histogram: 1 1 0 1 2 0 0 0 0 1

Total # of neighbors = 129983
Ave neighs/atom = 20.937983
Ave special neighs/atom = 1.9793814
Neighbor list builds = 312
Dangerous builds = 0

if "${myDensity} > 1.0" then "jump SELF break"

next a
jump SELF loop
variable a loop 1000
change_box all x scale 0.95 y scale 0.95 z scale 0.95 remap
Changing box ...
  orthogonal box = (424.80659 415.58588 415.58588) to (775.19341 784.41412 784.41412)
  orthogonal box = (424.80659 424.80659 415.58588) to (775.19341 775.19341 784.41412)
  orthogonal box = (424.80659 424.80659 424.80659) to (775.19341 775.19341 775.19341)
run 8000
Per MPI rank memory allocation (min/avg/max) = 11.79 | 11.83 | 11.88 Mbytes
Step PotEng Temp Press KinEng Lx Ly Lz Pzz S/CPU Density 
 1190001    2492.3178     335.1994    59.977036    6201.8218    350.38683    350.38683    350.38683    57.898555            0  0.026889889 
 1198001    282.62431    329.57858   0.47804662    6097.8259    350.38683    350.38683    350.38683   0.31693051    1309.3502  0.026889889 
Loop time of 6.11004 on 6 procs for 8000 steps with 6208 atoms

Performance: 1131.253 ns/day, 0.021 hours/ns, 1309.321 timesteps/s
99.7% CPU use with 6 MPI tasks x no OpenMP threads

MPI task timing breakdown:
Section |  min time  |  avg time  |  max time  |%varavg| %total
---------------------------------------------------------------
Pair    | 2.5271     | 3.2495     | 4.4771     |  34.8 | 53.18
Bond    | 0.074601   | 0.088887   | 0.1111     |   4.3 |  1.45
Neigh   | 0.41042    | 0.41392    | 0.4161     |   0.4 |  6.77
Comm    | 0.53535    | 1.8634     | 2.6449     |  49.9 | 30.50
Output  | 4.1008e-05 | 8.1221e-05 | 0.00018811 |   0.0 |  0.00
Modify  | 0.37494    | 0.44523    | 0.5555     |   9.4 |  7.29
Other   |            | 0.04899    |            |       |  0.80

Nlocal:        1034.67 ave        1342 max         836 min
Histogram: 2 0 0 1 2 0 0 0 0 1
Nghost:        2019.50 ave        2426 max        1802 min
Histogram: 1 1 2 0 0 1 0 0 0 1
Neighs:        20419.5 ave       27267 max       15192 min
Histogram: 1 0 2 1 0 0 1 0 0 1

Total # of neighbors = 122517
Ave neighs/atom = 19.735341
Ave special neighs/atom = 1.9793814
Neighbor list builds = 306
Dangerous builds = 0

if "${myDensity} > 1.0" then "jump SELF break"

next a
jump SELF loop
variable a loop 1000
change_box all x scale 0.95 y scale 0.95 z scale 0.95 remap
Changing box ...
  orthogonal box = (433.56626 424.80659 424.80659) to (766.43374 775.19341 775.19341)
  orthogonal box = (433.56626 433.56626 424.80659) to (766.43374 766.43374 775.19341)
  orthogonal box = (433.56626 433.56626 433.56626) to (766.43374 766.43374 766.43374)
run 8000
Per MPI rank memory allocation (min/avg/max) = 11.80 | 11.83 | 11.88 Mbytes
Step PotEng Temp Press KinEng Lx Ly Lz Pzz S/CPU Density 
 1198001    2491.6312    329.57858    68.909705    6097.8259    332.86749    332.86749    332.86749    68.523286            0  0.031363043 
 1206001    284.52363    329.24039   0.60063416    6091.5689    332.86749    332.86749    332.86749  0.041995528    1280.2223  0.031363043 
Loop time of 6.24904 on 6 procs for 8000 steps with 6208 atoms

Performance: 1106.091 ns/day, 0.022 hours/ns, 1280.198 timesteps/s
99.7% CPU use with 6 MPI tasks x no OpenMP threads

MPI task timing breakdown:
Section |  min time  |  avg time  |  max time  |%varavg| %total
---------------------------------------------------------------
Pair    | 2.74       | 3.3454     | 4.5041     |  32.2 | 53.53
Bond    | 0.069416   | 0.089145   | 0.11281    |   4.7 |  1.43
Neigh   | 0.44204    | 0.44712    | 0.45114    |   0.5 |  7.15
Comm    | 0.60275    | 1.865      | 2.5243     |  47.1 | 29.84
Output  | 0.0024607  | 0.0026671  | 0.0029349  |   0.3 |  0.04
Modify  | 0.34994    | 0.44676    | 0.56373    |  10.3 |  7.15
Other   |            | 0.05295    |            |       |  0.85

Nlocal:        1034.67 ave        1314 max         800 min
Histogram: 1 1 0 0 1 1 1 0 0 1
Nghost:        2228.67 ave        2667 max        1934 min
Histogram: 3 0 0 0 0 1 0 1 0 1
Neighs:        21991.5 ave       29204 max       17723 min
Histogram: 2 0 1 0 2 0 0 0 0 1

Total # of neighbors = 131949
Ave neighs/atom = 21.254671
Ave special neighs/atom = 1.9793814
Neighbor list builds = 312
Dangerous builds = 0

if "${myDensity} > 1.0" then "jump SELF break"

next a
jump SELF loop
variable a loop 1000
change_box all x scale 0.95 y scale 0.95 z scale 0.95 remap
Changing box ...
  orthogonal box = (441.88794 433.56626 433.56626) to (758.11206 766.43374 766.43374)
  orthogonal box = (441.88794 441.88794 433.56626) to (758.11206 758.11206 766.43374)
  orthogonal box = (441.88794 441.88794 441.88794) to (758.11206 758.11206 758.11206)
run 8000
Per MPI rank memory allocation (min/avg/max) = 11.80 | 11.83 | 11.88 Mbytes
Step PotEng Temp Press KinEng Lx Ly Lz Pzz S/CPU Density 
 1206001    2494.4565    329.24039    80.325389    6091.5689    316.22411    316.22411    316.22411    79.045697            0   0.03658031 
 1214001    318.62977    327.80663   0.06066804    6065.0416    316.22411    316.22411    316.22411    0.1830965    1309.0025   0.03658031 
Loop time of 6.11165 on 6 procs for 8000 steps with 6208 atoms

Performance: 1130.956 ns/day, 0.021 hours/ns, 1308.976 timesteps/s
99.7% CPU use with 6 MPI tasks x no OpenMP threads

MPI task timing breakdown:
Section |  min time  |  avg time  |  max time  |%varavg| %total
---------------------------------------------------------------
Pair    | 2.4702     | 3.6115     | 4.2803     |  31.7 | 59.09
Bond    | 0.063701   | 0.089575   | 0.10702    |   5.0 |  1.47
Neigh   | 0.42152    | 0.42693    | 0.43106    |   0.6 |  6.99
Comm    | 0.74664    | 1.4869     | 2.7554     |  55.1 | 24.33
Output  | 5.4121e-05 | 8.7897e-05 | 0.00019002 |   0.0 |  0.00
Modify  | 0.31982    | 0.44859    | 0.53364    |  11.1 |  7.34
Other   |            | 0.0481     |            |       |  0.79

Nlocal:        1034.67 ave        1250 max         731 min
Histogram: 1 0 1 0 1 0 0 0 1 2
Nghost:        2421.83 ave        2890 max        2140 min
Histogram: 2 0 2 0 0 0 0 1 0 1
Neighs:        22720.7 ave       27996 max       14119 min
Histogram: 1 0 0 0 1 0 1 1 1 1

Total # of neighbors = 136324
Ave neighs/atom = 21.959407
Ave special neighs/atom = 1.9793814
Neighbor list builds = 311
Dangerous builds = 0

if "${myDensity} > 1.0" then "jump SELF break"

next a
jump SELF loop
variable a loop 1000
change_box all x scale 0.95 y scale 0.95 z scale 0.95 remap
Changing box ...
  orthogonal box = (449.79355 441.88794 441.88794) to (750.20645 758.11206 758.11206)
  orthogonal box = (449.79355 449.79355 441.88794) to (750.20645 750.20645 758.11206)
  orthogonal box = (449.79355 449.79355 449.79355) to (750.20645 750.20645 750.20645)
run 8000
Per MPI rank memory allocation (min/avg/max) = 11.80 | 11.83 | 11.89 Mbytes
Step PotEng Temp Press KinEng Lx Ly Lz Pzz S/CPU Density 
 1214001    2493.8728    327.80663    93.225784    6065.0416    300.41291    300.41291    300.41291    93.112593            0  0.042665473 
 1222001    217.75672    332.36691    1.5137962    6149.4153    300.41291    300.41291    300.41291    1.6251009    1210.7016  0.042665473 
Loop time of 6.60786 on 6 procs for 8000 steps with 6208 atoms

Performance: 1046.028 ns/day, 0.023 hours/ns, 1210.680 timesteps/s
99.7% CPU use with 6 MPI tasks x no OpenMP threads

MPI task timing breakdown:
Section |  min time  |  avg time  |  max time  |%varavg| %total
---------------------------------------------------------------
Pair    | 2.6473     | 3.8314     | 4.8153     |  36.2 | 57.98
Bond    | 0.064939   | 0.089875   | 0.10782    |   5.6 |  1.36
Neigh   | 0.43873    | 0.44345    | 0.44804    |   0.5 |  6.71
Comm    | 0.68326    | 1.7451     | 3.0581     |  59.4 | 26.41
Output  | 4.5776e-05 | 7.9791e-05 | 0.00018311 |   0.0 |  0.00
Modify  | 0.32491    | 0.44767    | 0.53601    |  12.3 |  6.77
Other   |            | 0.05024    |            |       |  0.76

Nlocal:        1034.67 ave        1252 max         827 min
Histogram: 1 2 0 0 0 0 0 1 1 1
Nghost:        2656.50 ave        3193 max        2388 min
Histogram: 2 0 2 0 1 0 0 0 0 1
Neighs:        24802.7 ave       30449 max       18677 min
Histogram: 1 1 1 0 0 0 0 0 2 1

Total # of neighbors = 148816
Ave neighs/atom = 23.971649
Ave special neighs/atom = 1.9793814
Neighbor list builds = 307
Dangerous builds = 0

if "${myDensity} > 1.0" then "jump SELF break"

next a
jump SELF loop
variable a loop 1000
change_box all x scale 0.95 y scale 0.95 z scale 0.95 remap
Changing box ...
  orthogonal box = (457.30387 449.79355 449.79355) to (742.69613 750.20645 750.20645)
  orthogonal box = (457.30387 457.30387 449.79355) to (742.69613 742.69613 750.20645)
  orthogonal box = (457.30387 457.30387 457.30387) to (742.69613 742.69613 742.69613)
run 8000
Per MPI rank memory allocation (min/avg/max) = 11.80 | 11.84 | 11.89 Mbytes
Step PotEng Temp Press KinEng Lx Ly Lz Pzz S/CPU Density 
 1222001    2503.3808    332.36691    111.82224    6149.4153    285.39226    285.39226    285.39226    114.17401            0  0.049762908 
 1230001    194.80731    330.72524  -0.73898492    6119.0413    285.39226    285.39226    285.39226   0.38590921    1109.3133  0.049762908 
Loop time of 7.21179 on 6 procs for 8000 steps with 6208 atoms

Performance: 958.430 ns/day, 0.025 hours/ns, 1109.294 timesteps/s
99.7% CPU use with 6 MPI tasks x no OpenMP threads

MPI task timing breakdown:
Section |  min time  |  avg time  |  max time  |%varavg| %total
---------------------------------------------------------------
Pair    | 2.5266     | 3.9941     | 5.3218     |  44.5 | 55.38
Bond    | 0.064041   | 0.089787   | 0.11442    |   5.9 |  1.25
Neigh   | 0.51009    | 0.51336    | 0.51863    |   0.4 |  7.12
Comm    | 0.67362    | 2.109      | 3.7135     |  66.7 | 29.24
Output  | 4.1962e-05 | 8.4798e-05 | 0.00019383 |   0.0 |  0.00
Modify  | 0.32118    | 0.44746    | 0.56804    |  13.0 |  6.20
Other   |            | 0.05806    |            |       |  0.81

Nlocal:        1034.67 ave        1362 max         751 min
Histogram: 1 0 2 0 0 1 0 1 0 1
Nghost:        2782.33 ave        3119 max        2501 min
Histogram: 2 0 1 0 0 0 1 0 1 1
Neighs:        25035.8 ave       35920 max       14210 min
Histogram: 1 0 1 0 0 2 1 0 0 1

Total # of neighbors = 150215
Ave neighs/atom = 24.197004
Ave special neighs/atom = 1.9793814
Neighbor list builds = 312
Dangerous builds = 0

if "${myDensity} > 1.0" then "jump SELF break"

next a
jump SELF loop
variable a loop 1000
change_box all x scale 0.95 y scale 0.95 z scale 0.95 remap
Changing box ...
  orthogonal box = (464.43868 457.30387 457.30387) to (735.56132 742.69613 742.69613)
  orthogonal box = (464.43868 464.43868 457.30387) to (735.56132 735.56132 742.69613)
  orthogonal box = (464.43868 464.43868 464.43868) to (735.56132 735.56132 735.56132)
run 8000
Per MPI rank memory allocation (min/avg/max) = 11.81 | 11.84 | 11.89 Mbytes
Step PotEng Temp Press KinEng Lx Ly Lz Pzz S/CPU Density 
 1230001    2328.4241    330.72524    126.22103    6119.0413    271.12265    271.12265    271.12265    126.29977            0  0.058041006 
 1238001    122.70119    336.49783   0.18800347    6225.8452    271.12265    271.12265    271.12265     1.489171    988.49564  0.058041006 
Loop time of 8.09325 on 6 procs for 8000 steps with 6208 atoms

Performance: 854.045 ns/day, 0.028 hours/ns, 988.478 timesteps/s
99.6% CPU use with 6 MPI tasks x no OpenMP threads

MPI task timing breakdown:
Section |  min time  |  avg time  |  max time  |%varavg| %total
---------------------------------------------------------------
Pair    | 2.548      | 3.9222     | 6.0614     |  54.2 | 48.46
Bond    | 0.070831   | 0.090015   | 0.12105    |   5.5 |  1.11
Neigh   | 0.58458    | 0.58752    | 0.59128    |   0.3 |  7.26
Comm    | 0.7059     | 2.9814     | 4.4578     |  66.4 | 36.84
Output  | 4.1962e-05 | 8.6665e-05 | 0.00020909 |   0.0 |  0.00
Modify  | 0.35486    | 0.44689    | 0.59493    |  11.8 |  5.52
Other   |            | 0.06512    |            |       |  0.80

Nlocal:        1034.67 ave        1310 max         909 min
Histogram: 3 1 0 0 0 1 0 0 0 1
Nghost:        3107.50 ave        3571 max        2732 min
Histogram: 1 0 1 1 0 2 0 0 0 1
Neighs:        25037.7 ave       37494 max       18986 min
Histogram: 2 1 0 2 0 0 0 0 0 1

Total # of neighbors = 150226
Ave neighs/atom = 24.198776
Ave special neighs/atom = 1.9793814
Neighbor list builds = 313
Dangerous builds = 0

if "${myDensity} > 1.0" then "jump SELF break"

next a
jump SELF loop
variable a loop 1000
change_box all x scale 0.95 y scale 0.95 z scale 0.95 remap
Changing box ...
  orthogonal box = (471.21674 464.43868 464.43868) to (728.78326 735.56132 735.56132)
  orthogonal box = (471.21674 471.21674 464.43868) to (728.78326 728.78326 735.56132)
  orthogonal box = (471.21674 471.21674 471.21674) to (728.78326 728.78326 728.78326)
run 8000
Per MPI rank memory allocation (min/avg/max) = 11.81 | 11.84 | 11.89 Mbytes
Step PotEng Temp Press KinEng Lx Ly Lz Pzz S/CPU Density 
 1238001    2292.3759    336.49783    148.47731    6225.8452    257.56652    257.56652    257.56652    147.19667            0  0.067696173 
 1246001    61.217904    333.66518  -0.44779537    6173.4357    257.56652    257.56652    257.56652   0.60113411    1001.7813  0.067696173 
Loop time of 7.98589 on 6 procs for 8000 steps with 6208 atoms

Performance: 865.526 ns/day, 0.028 hours/ns, 1001.766 timesteps/s
99.6% CPU use with 6 MPI tasks x no OpenMP threads

MPI task timing breakdown:
Section |  min time  |  avg time  |  max time  |%varavg| %total
---------------------------------------------------------------
Pair    | 3.3653     | 4.1912     | 5.8721     |  44.5 | 52.48
Bond    | 0.07588    | 0.089889   | 0.11302    |   4.4 |  1.13
Neigh   | 0.57007    | 0.5728     | 0.5764     |   0.3 |  7.17
Comm    | 0.84553    | 2.6249     | 3.492      |  59.8 | 32.87
Output  | 4.1008e-05 | 8.1976e-05 | 0.00018692 |   0.0 |  0.00
Modify  | 0.37842    | 0.44689    | 0.55888    |   9.6 |  5.60
Other   |            | 0.06019    |            |       |  0.75

Nlocal:        1034.67 ave        1235 max         871 min
Histogram: 1 2 0 0 0 1 0 0 1 1
Nghost:        3429.17 ave        3980 max        2812 min
Histogram: 1 0 0 0 2 1 0 1 0 1
Neighs:        28495.0 ave       36373 max       22549 min
Histogram: 2 1 0 0 1 0 0 0 1 1

Total # of neighbors = 170970
Ave neighs/atom = 27.540271
Ave special neighs/atom = 1.9793814
Neighbor list builds = 312
Dangerous builds = 0

if "${myDensity} > 1.0" then "jump SELF break"

next a
jump SELF loop
variable a loop 1000
change_box all x scale 0.95 y scale 0.95 z scale 0.95 remap
Changing box ...
  orthogonal box = (477.65590 471.21674 471.21674) to (722.34410 728.78326 728.78326)
  orthogonal box = (477.65590 477.65590 471.21674) to (722.34410 722.34410 728.78326)
  orthogonal box = (477.65590 477.65590 477.65590) to (722.34410 722.34410 722.34410)
run 8000
Per MPI rank memory allocation (min/avg/max) = 11.82 | 11.84 | 11.90 Mbytes
Step PotEng Temp Press KinEng Lx Ly Lz Pzz S/CPU Density 
 1246001    2231.2289    333.66518    173.84812    6173.4357    244.68819    244.68819    244.68819    177.08938            0  0.078957484 
 1254001    19.385374    336.33442  -0.35340225    6222.8218    244.68819    244.68819    244.68819   -2.4890339    987.82213  0.078957484 
Loop time of 8.09875 on 6 procs for 8000 steps with 6208 atoms

Performance: 853.465 ns/day, 0.028 hours/ns, 987.807 timesteps/s
99.6% CPU use with 6 MPI tasks x no OpenMP threads

MPI task timing breakdown:
Section |  min time  |  avg time  |  max time  |%varavg| %total
---------------------------------------------------------------
Pair    | 3.4587     | 4.5781     | 5.7548     |  37.0 | 56.53
Bond    | 0.073552   | 0.090982   | 0.10947    |   4.1 |  1.12
Neigh   | 0.6285     | 0.63184    | 0.63683    |   0.4 |  7.80
Comm    | 1.0332     | 2.2923     | 3.5068     |  56.0 | 28.30
Output  | 4.1008e-05 | 7.9036e-05 | 0.00017595 |   0.0 |  0.00
Modify  | 0.36302    | 0.44941    | 0.54029    |   9.0 |  5.55
Other   |            | 0.05612    |            |       |  0.69

Nlocal:        1034.67 ave        1362 max         785 min
Histogram: 1 1 1 0 0 1 1 0 0 1
Nghost:        3688.33 ave        4195 max        2849 min
Histogram: 1 0 0 0 0 1 1 1 1 1
Neighs:        28923.5 ave       41472 max       20478 min
Histogram: 2 0 1 0 0 2 0 0 0 1

Total # of neighbors = 173541
Ave neighs/atom = 27.954414
Ave special neighs/atom = 1.9793814
Neighbor list builds = 312
Dangerous builds = 0

if "${myDensity} > 1.0" then "jump SELF break"

next a
jump SELF loop
variable a loop 1000
change_box all x scale 0.95 y scale 0.95 z scale 0.95 remap
Changing box ...
  orthogonal box = (483.77311 477.65590 477.65590) to (716.22689 722.34410 722.34410)
  orthogonal box = (483.77311 483.77311 477.65590) to (716.22689 716.22689 722.34410)
  orthogonal box = (483.77311 483.77311 483.77311) to (716.22689 716.22689 716.22689)
run 8000
Per MPI rank memory allocation (min/avg/max) = 11.82 | 11.85 | 11.91 Mbytes
Step PotEng Temp Press KinEng Lx Ly Lz Pzz S/CPU Density 
 1254001    2196.0214    336.33442    203.53692    6222.8218    232.45378    232.45378    232.45378    203.26314            0  0.092092123 
 1262001    94.239021     325.5629   -1.3046095    6023.5283    232.45378    232.45378    232.45378   -1.7823766     933.3653  0.092092123 
Loop time of 8.57126 on 6 procs for 8000 steps with 6208 atoms

Performance: 806.416 ns/day, 0.030 hours/ns, 933.352 timesteps/s
99.6% CPU use with 6 MPI tasks x no OpenMP threads

MPI task timing breakdown:
Section |  min time  |  avg time  |  max time  |%varavg| %total
---------------------------------------------------------------
Pair    | 2.6888     | 4.571      | 6.198      |  53.7 | 53.33
Bond    | 0.064288   | 0.090918   | 0.12037    |   6.2 |  1.06
Neigh   | 0.69588    | 0.69877    | 0.70379    |   0.3 |  8.15
Comm    | 0.9304     | 2.6959     | 4.7167     |  75.4 | 31.45
Output  | 4.3154e-05 | 8.1539e-05 | 0.00017285 |   0.0 |  0.00
Modify  | 0.32068    | 0.45       | 0.59548    |  13.6 |  5.25
Other   |            | 0.06457    |            |       |  0.75

Nlocal:        1034.67 ave        1383 max         743 min
Histogram: 1 2 0 0 0 0 1 1 0 1
Nghost:        3855.00 ave        4482 max        2983 min
Histogram: 1 0 0 1 0 2 0 0 0 2
Neighs:        29384.8 ave       41787 max       16349 min
Histogram: 1 0 2 0 0 0 0 1 1 1

Total # of neighbors = 176309
Ave neighs/atom = 28.400290
Ave special neighs/atom = 1.9793814
Neighbor list builds = 309
Dangerous builds = 0

if "${myDensity} > 1.0" then "jump SELF break"

next a
jump SELF loop
variable a loop 1000
change_box all x scale 0.95 y scale 0.95 z scale 0.95 remap
Changing box ...
  orthogonal box = (489.58445 483.77311 483.77311) to (710.41555 716.22689 716.22689)
  orthogonal box = (489.58445 489.58445 483.77311) to (710.41555 710.41555 716.22689)
  orthogonal box = (489.58445 489.58445 489.58445) to (710.41555 710.41555 710.41555)
run 8000
Per MPI rank memory allocation (min/avg/max) = 11.82 | 11.85 | 11.91 Mbytes
Step PotEng Temp Press KinEng Lx Ly Lz Pzz S/CPU Density 
 1262001    2250.2746     325.5629    234.79358    6023.5283    220.83109    220.83109    220.83109    237.54291            0   0.10741172 
 1270001    58.255108    331.50526   -2.7261116    6133.4732    220.83109    220.83109    220.83109   -4.5127765    789.03221   0.10741172 
Loop time of 10.1391 on 6 procs for 8000 steps with 6208 atoms

Performance: 681.716 ns/day, 0.035 hours/ns, 789.023 timesteps/s
99.6% CPU use with 6 MPI tasks x no OpenMP threads

MPI task timing breakdown:
Section |  min time  |  avg time  |  max time  |%varavg| %total
---------------------------------------------------------------
Pair    | 3.0616     | 4.8439     | 7.5815     |  68.5 | 47.77
Bond    | 0.067142   | 0.090886   | 0.12476    |   6.4 |  0.90
Neigh   | 0.81501    | 0.81766    | 0.82115    |   0.2 |  8.06
Comm    | 0.9728     | 3.8692     | 5.7731     |  81.4 | 38.16
Output  | 4.1008e-05 | 9.1434e-05 | 0.00018907 |   0.0 |  0.00
Modify  | 0.33569    | 0.44896    | 0.61307    |  14.0 |  4.43
Other   |            | 0.06848    |            |       |  0.68

Nlocal:        1034.67 ave        1556 max         782 min
Histogram: 2 1 0 1 1 0 0 0 0 1
Nghost:        3957.33 ave        4848 max        3196 min
Histogram: 1 1 0 1 0 1 0 1 0 1
Neighs:        30437.7 ave       52398 max       20793 min
Histogram: 2 1 0 2 0 0 0 0 0 1

Total # of neighbors = 182626
Ave neighs/atom = 29.417848
Ave special neighs/atom = 1.9793814
Neighbor list builds = 308
Dangerous builds = 0

if "${myDensity} > 1.0" then "jump SELF break"

next a
jump SELF loop
variable a loop 1000
change_box all x scale 0.95 y scale 0.95 z scale 0.95 remap
Changing box ...
  orthogonal box = (495.10523 489.58445 489.58445) to (704.89477 710.41555 710.41555)
  orthogonal box = (495.10523 495.10523 489.58445) to (704.89477 704.89477 710.41555)
  orthogonal box = (495.10523 495.10523 495.10523) to (704.89477 704.89477 704.89477)
run 8000
Per MPI rank memory allocation (min/avg/max) = 11.82 | 11.85 | 11.91 Mbytes
Step PotEng Temp Press KinEng Lx Ly Lz Pzz S/CPU Density 
 1270001    2170.4458    331.50526    272.16484    6133.4732    209.78954    209.78954    209.78954     279.2454            0   0.12527974 
 1278001  -0.01740614    328.94497   -1.0010707    6086.1029    209.78954    209.78954    209.78954   -5.9562288    772.52694   0.12527974 
Loop time of 10.3558 on 6 procs for 8000 steps with 6208 atoms

Performance: 667.455 ns/day, 0.036 hours/ns, 772.517 timesteps/s
99.6% CPU use with 6 MPI tasks x no OpenMP threads

MPI task timing breakdown:
Section |  min time  |  avg time  |  max time  |%varavg| %total
---------------------------------------------------------------
Pair    | 3.1431     | 4.9917     | 7.5935     |  63.5 | 48.20
Bond    | 0.061687   | 0.090977   | 0.128      |   6.9 |  0.88
Neigh   | 0.92523    | 0.92724    | 0.93052    |   0.2 |  8.95
Comm    | 1.0476     | 3.8205     | 5.8196     |  77.6 | 36.89
Output  | 4.7207e-05 | 9.6997e-05 | 0.000211   |   0.0 |  0.00
Modify  | 0.30748    | 0.44857    | 0.62672    |  14.9 |  4.33
Other   |            | 0.07666    |            |       |  0.74

Nlocal:        1034.67 ave        1475 max         663 min
Histogram: 1 0 0 2 1 0 1 0 0 1
Nghost:        4267.67 ave        4934 max        3705 min
Histogram: 2 0 0 1 0 1 0 1 0 1
Neighs:        32984.3 ave       50282 max       20253 min
Histogram: 1 0 2 1 0 0 1 0 0 1

Total # of neighbors = 197906
Ave neighs/atom = 31.879188
Ave special neighs/atom = 1.9793814
Neighbor list builds = 317
Dangerous builds = 0

if "${myDensity} > 1.0" then "jump SELF break"

next a
jump SELF loop
variable a loop 1000
change_box all x scale 0.95 y scale 0.95 z scale 0.95 remap
Changing box ...
  orthogonal box = (500.34997 495.10523 495.10523) to (699.65003 704.89477 704.89477)
  orthogonal box = (500.34997 500.34997 495.10523) to (699.65003 699.65003 704.89477)
  orthogonal box = (500.34997 500.34997 500.34997) to (699.65003 699.65003 699.65003)
run 8000
Per MPI rank memory allocation (min/avg/max) = 11.83 | 11.86 | 11.91 Mbytes
Step PotEng Temp Press KinEng Lx Ly Lz Pzz S/CPU Density 
 1278001    2225.3549    328.94497    327.97113    6086.1029    199.30006    199.30006    199.30006     323.3703            0   0.14612013 
 1286001   -156.98878    334.42971   -1.4303395    6187.5811    199.30006    199.30006    199.30006    3.0345489    745.28213   0.14612013 
Loop time of 10.7343 on 6 procs for 8000 steps with 6208 atoms

Performance: 643.917 ns/day, 0.037 hours/ns, 745.274 timesteps/s
99.4% CPU use with 6 MPI tasks x no OpenMP threads

MPI task timing breakdown:
Section |  min time  |  avg time  |  max time  |%varavg| %total
---------------------------------------------------------------
Pair    | 2.7354     | 5.384      | 7.8782     |  72.7 | 50.16
Bond    | 0.053123   | 0.091861   | 0.12856    |   7.8 |  0.86
Neigh   | 0.92998    | 0.93386    | 0.93835    |   0.3 |  8.70
Comm    | 1.1313     | 3.7942     | 6.6399     |  92.3 | 35.35
Output  | 5.1975e-05 | 9.4136e-05 | 0.00019312 |   0.0 |  0.00
Modify  | 0.26491    | 0.45142    | 0.62627    |  16.9 |  4.21
Other   |            | 0.07883    |            |       |  0.73

Nlocal:        1034.67 ave        1410 max         551 min
Histogram: 1 0 0 0 2 1 0 0 1 1
Nghost:        4549.50 ave        5078 max        4160 min
Histogram: 2 1 0 0 0 1 0 0 1 1
Neighs:        34735.3 ave       49328 max       15788 min
Histogram: 1 0 0 1 0 2 0 0 0 2

Total # of neighbors = 208412
Ave neighs/atom = 33.571521
Ave special neighs/atom = 1.9793814
Neighbor list builds = 305
Dangerous builds = 0

if "${myDensity} > 1.0" then "jump SELF break"

next a
jump SELF loop
variable a loop 1000
change_box all x scale 0.95 y scale 0.95 z scale 0.95 remap
Changing box ...
  orthogonal box = (505.33247 500.34997 500.34997) to (694.66753 699.65003 699.65003)
  orthogonal box = (505.33247 505.33247 500.34997) to (694.66753 694.66753 699.65003)
  orthogonal box = (505.33247 505.33247 505.33247) to (694.66753 694.66753 694.66753)
run 8000
Per MPI rank memory allocation (min/avg/max) = 11.83 | 11.86 | 11.91 Mbytes
Step PotEng Temp Press KinEng Lx Ly Lz Pzz S/CPU Density 
 1286001    2023.1526    334.42971    379.28748    6187.5811    189.33506    189.33506    189.33506    380.49277            0   0.17042732 
 1294001   -187.52646    328.75126    2.1566668    6082.5191    189.33506    189.33506    189.33506    5.1054869    763.27204   0.17042732 
Loop time of 10.4813 on 6 procs for 8000 steps with 6208 atoms

Performance: 659.459 ns/day, 0.036 hours/ns, 763.262 timesteps/s
99.5% CPU use with 6 MPI tasks x no OpenMP threads

MPI task timing breakdown:
Section |  min time  |  avg time  |  max time  |%varavg| %total
---------------------------------------------------------------
Pair    | 2.8305     | 5.5728     | 7.7193     |  69.1 | 53.17
Bond    | 0.052968   | 0.092414   | 0.11764    |   7.0 |  0.88
Neigh   | 0.93882    | 0.94093    | 0.94381    |   0.2 |  8.98
Comm    | 1.1035     | 3.3607     | 6.2969     |  94.3 | 32.06
Output  | 3.9101e-05 | 7.7486e-05 | 0.00019383 |   0.0 |  0.00
Modify  | 0.26369    | 0.45011    | 0.56578    |  14.8 |  4.29
Other   |            | 0.06422    |            |       |  0.61

Nlocal:        1034.67 ave        1308 max         662 min
Histogram: 1 0 0 0 2 0 0 1 1 1
Nghost:        4902.17 ave        5461 max        4529 min
Histogram: 2 1 0 0 0 1 1 0 0 1
Neighs:        36225.2 ave       50562 max       18131 min
Histogram: 1 0 0 2 0 0 0 1 1 1

Total # of neighbors = 217351
Ave neighs/atom = 35.011437
Ave special neighs/atom = 1.9793814
Neighbor list builds = 318
Dangerous builds = 0

if "${myDensity} > 1.0" then "jump SELF break"

next a
jump SELF loop
variable a loop 1000
change_box all x scale 0.95 y scale 0.95 z scale 0.95 remap
Changing box ...
  orthogonal box = (510.06585 505.33247 505.33247) to (689.93415 694.66753 694.66753)
  orthogonal box = (510.06585 510.06585 505.33247) to (689.93415 689.93415 694.66753)
  orthogonal box = (510.06585 510.06585 510.06585) to (689.93415 689.93415 689.93415)
run 8000
Per MPI rank memory allocation (min/avg/max) = 11.84 | 11.86 | 11.92 Mbytes
Step PotEng Temp Press KinEng Lx Ly Lz Pzz S/CPU Density 
 1294001    2076.8687    328.75126    447.98765    6082.5191     179.8683     179.8683     179.8683    449.78828            0   0.19877804 
 1302001   -174.79461    333.96911   -1.1072458     6179.059     179.8683     179.8683     179.8683   -3.6835311    678.34108   0.19877804 
Loop time of 11.7936 on 6 procs for 8000 steps with 6208 atoms

Performance: 586.081 ns/day, 0.041 hours/ns, 678.334 timesteps/s
99.5% CPU use with 6 MPI tasks x no OpenMP threads

MPI task timing breakdown:
Section |  min time  |  avg time  |  max time  |%varavg| %total
---------------------------------------------------------------
Pair    | 3.8615     | 5.8922     | 8.8383     |  69.8 | 49.96
Bond    | 0.063195   | 0.091939   | 0.12268    |   6.2 |  0.78
Neigh   | 1.031      | 1.0321     | 1.034      |   0.1 |  8.75
Comm    | 1.1676     | 4.2554     | 6.4303     |  86.3 | 36.08
Output  | 0.0025079  | 0.0026816  | 0.0029662  |   0.3 |  0.02
Modify  | 0.31149    | 0.44908    | 0.59522    |  13.4 |  3.81
Other   |            | 0.07026    |            |       |  0.60

Nlocal:        1034.67 ave        1373 max         752 min
Histogram: 1 0 1 1 1 0 1 0 0 1
Nghost:        5165.33 ave        5861 max        4777 min
Histogram: 3 0 0 0 1 1 0 0 0 1
Neighs:        38938.3 ave       59249 max       27986 min
Histogram: 2 1 0 1 0 1 0 0 0 1

Total # of neighbors = 233630
Ave neighs/atom = 37.633698
Ave special neighs/atom = 1.9793814
Neighbor list builds = 307
Dangerous builds = 0

if "${myDensity} > 1.0" then "jump SELF break"

next a
jump SELF loop
variable a loop 1000
change_box all x scale 0.95 y scale 0.95 z scale 0.95 remap
Changing box ...
  orthogonal box = (514.56256 510.06585 510.06585) to (685.43744 689.93415 689.93415)
  orthogonal box = (514.56256 514.56256 510.06585) to (685.43744 685.43744 689.93415)
  orthogonal box = (514.56256 514.56256 514.56256) to (685.43744 685.43744 685.43744)
run 8000
Per MPI rank memory allocation (min/avg/max) = 11.84 | 11.87 | 11.92 Mbytes
Step PotEng Temp Press KinEng Lx Ly Lz Pzz S/CPU Density 
 1302001    2055.8711    333.96911    526.46289     6179.059    170.87489    170.87489    170.87489    509.31107            0   0.23184492 
 1310001   -309.96258    331.56385    2.9346447    6134.5572    170.87489    170.87489    170.87489    4.8664542    690.68711   0.23184492 
Loop time of 11.5828 on 6 procs for 8000 steps with 6208 atoms

Performance: 596.747 ns/day, 0.040 hours/ns, 690.680 timesteps/s
99.5% CPU use with 6 MPI tasks x no OpenMP threads

MPI task timing breakdown:
Section |  min time  |  avg time  |  max time  |%varavg| %total
---------------------------------------------------------------
Pair    | 4.9101     | 6.3453     | 8.645      |  50.0 | 54.78
Bond    | 0.076878   | 0.092106   | 0.11469    |   4.3 |  0.80
Neigh   | 1.0162     | 1.0172     | 1.0192     |   0.1 |  8.78
Comm    | 1.2134     | 3.617      | 5.0952     |  69.2 | 31.23
Output  | 4.2915e-05 | 8.3129e-05 | 0.00019097 |   0.0 |  0.00
Modify  | 0.37697    | 0.44902    | 0.55552    |   9.2 |  3.88
Other   |            | 0.06202    |            |       |  0.54

Nlocal:        1034.67 ave        1332 max         894 min
Histogram: 2 0 2 1 0 0 0 0 0 1
Nghost:        5577.83 ave        6016 max        5211 min
Histogram: 2 0 0 1 0 1 0 0 1 1
Neighs:        41024.7 ave       59796 max       31292 min
Histogram: 2 0 1 2 0 0 0 0 0 1

Total # of neighbors = 246148
Ave neighs/atom = 39.650129
Ave special neighs/atom = 1.9793814
Neighbor list builds = 304
Dangerous builds = 0

if "${myDensity} > 1.0" then "jump SELF break"

next a
jump SELF loop
variable a loop 1000
change_box all x scale 0.95 y scale 0.95 z scale 0.95 remap
Changing box ...
  orthogonal box = (518.83443 514.56256 514.56256) to (681.16557 685.43744 685.43744)
  orthogonal box = (518.83443 518.83443 514.56256) to (681.16557 681.16557 685.43744)
  orthogonal box = (518.83443 518.83443 518.83443) to (681.16557 681.16557 681.16557)
run 8000
Per MPI rank memory allocation (min/avg/max) = 11.85 | 11.87 | 11.92 Mbytes
Step PotEng Temp Press KinEng Lx Ly Lz Pzz S/CPU Density 
 1310001     1951.836    331.56385    610.32442    6134.5572    162.33115    162.33115    162.33115    613.23874            0   0.27041251 
 1318001   -330.03159    333.69234   -1.1825765    6173.9383    162.33115    162.33115    162.33115   -1.6288462    605.93492   0.27041251 
Loop time of 13.2029 on 6 procs for 8000 steps with 6208 atoms

Performance: 523.523 ns/day, 0.046 hours/ns, 605.929 timesteps/s
99.6% CPU use with 6 MPI tasks x no OpenMP threads

MPI task timing breakdown:
Section |  min time  |  avg time  |  max time  |%varavg| %total
---------------------------------------------------------------
Pair    | 5.3731     | 6.8761     | 9.9365     |  58.8 | 52.08
Bond    | 0.075387   | 0.0937     | 0.12424    |   5.2 |  0.71
Neigh   | 1.1913     | 1.1926     | 1.1946     |   0.1 |  9.03
Comm    | 1.3245     | 4.5172     | 6.0729     |  75.8 | 34.21
Output  | 4.5061e-05 | 8.7301e-05 | 0.00020003 |   0.0 |  0.00
Modify  | 0.36559    | 0.44971    | 0.5854     |  10.6 |  3.41
Other   |            | 0.0735     |            |       |  0.56

Nlocal:        1034.67 ave        1490 max         854 min
Histogram: 3 0 1 1 0 0 0 0 0 1
Nghost:        6128.67 ave        6785 max        5643 min
Histogram: 1 1 0 1 1 1 0 0 0 1
Neighs:        44476.2 ave       74899 max       32055 min
Histogram: 2 1 1 1 0 0 0 0 0 1

Total # of neighbors = 266857
Ave neighs/atom = 42.985986
Ave special neighs/atom = 1.9793814
Neighbor list builds = 310
Dangerous builds = 0

if "${myDensity} > 1.0" then "jump SELF break"

next a
jump SELF loop
variable a loop 1000
change_box all x scale 0.95 y scale 0.95 z scale 0.95 remap
Changing box ...
  orthogonal box = (522.89271 518.83443 518.83443) to (677.10729 681.16557 681.16557)
  orthogonal box = (522.89271 522.89271 518.83443) to (677.10729 677.10729 681.16557)
  orthogonal box = (522.89271 522.89271 522.89271) to (677.10729 677.10729 677.10729)
run 8000
Per MPI rank memory allocation (min/avg/max) = 11.86 | 11.88 | 11.93 Mbytes
Step PotEng Temp Press KinEng Lx Ly Lz Pzz S/CPU Density 
 1318001    1890.5517    333.69234    708.45393    6173.9383    154.21459    154.21459    154.21459    713.12496            0   0.31539584 
 1326001   -489.23026    334.00926   0.18336212    6179.8019    154.21459    154.21459    154.21459    6.2848416    487.21461   0.31539584 
Loop time of 16.42 on 6 procs for 8000 steps with 6208 atoms

Performance: 420.950 ns/day, 0.057 hours/ns, 487.211 timesteps/s
99.0% CPU use with 6 MPI tasks x no OpenMP threads

MPI task timing breakdown:
Section |  min time  |  avg time  |  max time  |%varavg| %total
---------------------------------------------------------------
Pair    | 4.5719     | 7.4816     | 12.532     |  90.7 | 45.56
Bond    | 0.070489   | 0.092753   | 0.13035    |   6.2 |  0.56
Neigh   | 1.4599     | 1.4627     | 1.4665     |   0.2 |  8.91
Comm    | 1.621      | 6.8213     | 9.8419     |  97.9 | 41.54
Output  | 4.3869e-05 | 9.2228e-05 | 0.00021386 |   0.0 |  0.00
Modify  | 0.3429     | 0.44918    | 0.62978    |  13.4 |  2.74
Other   |            | 0.1123     |            |       |  0.68

Nlocal:        1034.67 ave        1482 max         754 min
Histogram: 1 0 2 1 1 0 0 0 0 1
Nghost:        6695.17 ave        7082 max        6298 min
Histogram: 1 0 0 1 1 1 1 0 0 1
Neighs:        49578.3 ave       85210 max       27439 min
Histogram: 1 0 2 1 1 0 0 0 0 1

Total # of neighbors = 297470
Ave neighs/atom = 47.917204
Ave special neighs/atom = 1.9793814
Neighbor list builds = 310
Dangerous builds = 0

if "${myDensity} > 1.0" then "jump SELF break"

next a
jump SELF loop
variable a loop 1000
change_box all x scale 0.95 y scale 0.95 z scale 0.95 remap
Changing box ...
  orthogonal box = (526.74807 522.89271 522.89271) to (673.25193 677.10729 677.10729)
  orthogonal box = (526.74807 526.74807 522.89271) to (673.25193 673.25193 677.10729)
  orthogonal box = (526.74807 526.74807 526.74807) to (673.25193 673.25193 673.25193)
run 8000
Per MPI rank memory allocation (min/avg/max) = 11.86 | 11.95 | 12.32 Mbytes
Step PotEng Temp Press KinEng Lx Ly Lz Pzz S/CPU Density 
 1326001    1772.0779    334.00926    837.87921    6179.8019    146.50386    146.50386    146.50386    830.69692            0   0.36786218 
 1334001   -524.20854    331.78958   -22.770784    6138.7336    146.50386    146.50386    146.50386   -9.5398999     522.7303   0.36786218 
Loop time of 15.3044 on 6 procs for 8000 steps with 6208 atoms

Performance: 451.635 ns/day, 0.053 hours/ns, 522.726 timesteps/s
98.6% CPU use with 6 MPI tasks x no OpenMP threads

MPI task timing breakdown:
Section |  min time  |  avg time  |  max time  |%varavg| %total
---------------------------------------------------------------
Pair    | 5.2828     | 7.9681     | 11.429     |  69.7 | 52.06
Bond    | 0.070875   | 0.093603   | 0.11795    |   5.0 |  0.61
Neigh   | 1.4249     | 1.4273     | 1.4306     |   0.2 |  9.33
Comm    | 1.7168     | 5.2406     | 7.9996     |  87.7 | 34.24
Output  | 4.1962e-05 | 8.2334e-05 | 0.00021005 |   0.0 |  0.00
Modify  | 0.34244    | 0.45178    | 0.56896    |  10.8 |  2.95
Other   |            | 0.1229     |            |       |  0.80

Nlocal:        1034.67 ave        1277 max         797 min
Histogram: 1 1 0 0 1 0 2 0 0 1
Nghost:        7205.83 ave        7518 max        6877 min
Histogram: 1 0 1 0 1 1 0 1 0 1
Neighs:        51259.3 ave       73684 max       35344 min
Histogram: 1 1 1 0 0 2 0 0 0 1

Total # of neighbors = 307556
Ave neighs/atom = 49.541881
Ave special neighs/atom = 1.9793814
Neighbor list builds = 315
Dangerous builds = 0

if "${myDensity} > 1.0" then "jump SELF break"

next a
jump SELF loop
variable a loop 1000
change_box all x scale 0.95 y scale 0.95 z scale 0.95 remap
Changing box ...
  orthogonal box = (530.41067 526.74807 526.74807) to (669.58933 673.25193 673.25193)
  orthogonal box = (530.41067 530.41067 526.74807) to (669.58933 669.58933 673.25193)
  orthogonal box = (530.41067 530.41067 530.41067) to (669.58933 669.58933 669.58933)
run 8000
Per MPI rank memory allocation (min/avg/max) = 11.87 | 11.96 | 12.32 Mbytes
Step PotEng Temp Press KinEng Lx Ly Lz Pzz S/CPU Density 
 1334001    1580.1483    331.78958    952.86841    6138.7336    139.17867    139.17867    139.17867    977.47238            0   0.42905634 
 1342001   -663.22711    328.37284    -6.511936    6075.5175    139.17867    139.17867    139.17867    1.7109496    530.75591   0.42905634 
Loop time of 15.073 on 6 procs for 8000 steps with 6208 atoms

Performance: 458.569 ns/day, 0.052 hours/ns, 530.752 timesteps/s
97.8% CPU use with 6 MPI tasks x no OpenMP threads

MPI task timing breakdown:
Section |  min time  |  avg time  |  max time  |%varavg| %total
---------------------------------------------------------------
Pair    | 6.9901     | 8.5642     | 11.178     |  53.0 | 56.82
Bond    | 0.086086   | 0.096675   | 0.11354    |   3.2 |  0.64
Neigh   | 1.3766     | 1.3787     | 1.3818     |   0.2 |  9.15
Comm    | 1.7588     | 4.4219     | 6.0311     |  75.5 | 29.34
Output  | 4.2915e-05 | 8.4917e-05 | 0.00018501 |   0.0 |  0.00
Modify  | 0.40158    | 0.45339    | 0.52726    |   6.9 |  3.01
Other   |            | 0.1579     |            |       |  1.05

Nlocal:        1034.67 ave        1207 max         875 min
Histogram: 1 0 0 2 1 0 1 0 0 1
Nghost:        7890.00 ave        8053 max        7810 min
Histogram: 2 1 0 1 1 0 0 0 0 1
Neighs:        55416.3 ave       73144 max       41125 min
Histogram: 1 0 1 1 1 1 0 0 0 1

Total # of neighbors = 332498
Ave neighs/atom = 53.559601
Ave special neighs/atom = 1.9793814
Neighbor list builds = 310
Dangerous builds = 0

if "${myDensity} > 1.0" then "jump SELF break"

next a
jump SELF loop
variable a loop 1000
change_box all x scale 0.95 y scale 0.95 z scale 0.95 remap
Changing box ...
  orthogonal box = (533.89013 530.41067 530.41067) to (666.10987 669.58933 669.58933)
  orthogonal box = (533.89013 533.89013 530.41067) to (666.10987 666.10987 669.58933)
  orthogonal box = (533.89013 533.89013 533.89013) to (666.10987 666.10987 666.10987)
run 8000
Per MPI rank memory allocation (min/avg/max) = 11.88 | 11.97 | 12.33 Mbytes
Step PotEng Temp Press KinEng Lx Ly Lz Pzz S/CPU Density 
 1342001    1585.4811    328.37284    1140.0686    6075.5175    132.21973    132.21973    132.21973    1160.8216            0    0.5004302 
 1350001   -702.24865    322.92382    6.8046145    5974.7004    132.21973    132.21973    132.21973    7.5328181    511.18721    0.5004302 
Loop time of 15.65 on 6 procs for 8000 steps with 6208 atoms

Performance: 441.662 ns/day, 0.054 hours/ns, 511.182 timesteps/s
96.6% CPU use with 6 MPI tasks x no OpenMP threads

MPI task timing breakdown:
Section |  min time  |  avg time  |  max time  |%varavg| %total
---------------------------------------------------------------
Pair    | 6.7677     | 9.399      | 11.379     |  48.2 | 60.06
Bond    | 0.08148    | 0.097376   | 0.11196    |   3.2 |  0.62
Neigh   | 1.3327     | 1.3349     | 1.3384     |   0.2 |  8.53
Comm    | 2.1        | 4.1517     | 6.8557     |  74.9 | 26.53
Output  | 4.6015e-05 | 7.8241e-05 | 0.00019002 |   0.0 |  0.00
Modify  | 0.37725    | 0.45249    | 0.52194    |   6.8 |  2.89
Other   |            | 0.2145     |            |       |  1.37

Nlocal:        1034.67 ave        1143 max         849 min
Histogram: 1 0 0 0 0 1 0 3 0 1
Nghost:        8768.00 ave        9084 max        8644 min
Histogram: 3 1 0 0 1 0 0 0 0 1
Neighs:        60668.2 ave       72834 max       41057 min
Histogram: 1 0 0 0 0 1 1 2 0 1

Total # of neighbors = 364009
Ave neighs/atom = 58.635470
Ave special neighs/atom = 1.9793814
Neighbor list builds = 310
Dangerous builds = 0

if "${myDensity} > 1.0" then "jump SELF break"

next a
jump SELF loop
variable a loop 1000
change_box all x scale 0.95 y scale 0.95 z scale 0.95 remap
Changing box ...
  orthogonal box = (537.19563 533.89013 533.89013) to (662.80437 666.10987 666.10987)
  orthogonal box = (537.19563 537.19563 533.89013) to (662.80437 662.80437 666.10987)
  orthogonal box = (537.19563 537.19563 537.19563) to (662.80437 662.80437 662.80437)
run 8000
Per MPI rank memory allocation (min/avg/max) = 11.89 | 11.98 | 12.34 Mbytes
Step PotEng Temp Press KinEng Lx Ly Lz Pzz S/CPU Density 
 1350001    1677.7126    322.92382    1373.3343    5974.7004    125.60875    125.60875    125.60875    1368.2777            0   0.58367716 
 1358001   -943.86205    337.10348    17.982337    6237.0507    125.60875    125.60875    125.60875    13.957324    486.18484   0.58367716 
Loop time of 16.4548 on 6 procs for 8000 steps with 6208 atoms

Performance: 420.061 ns/day, 0.057 hours/ns, 486.181 timesteps/s
95.9% CPU use with 6 MPI tasks x no OpenMP threads

MPI task timing breakdown:
Section |  min time  |  avg time  |  max time  |%varavg| %total
---------------------------------------------------------------
Pair    | 9.0681     | 10.558     | 12.32      |  35.7 | 64.16
Bond    | 0.086639   | 0.095603   | 0.10338    |   1.9 |  0.58
Neigh   | 1.4093     | 1.4105     | 1.4119     |   0.1 |  8.57
Comm    | 1.8674     | 3.7028     | 5.2462     |  62.5 | 22.50
Output  | 4.2915e-05 | 7.6175e-05 | 0.00018811 |   0.0 |  0.00
Modify  | 0.41666    | 0.45464    | 0.49668    |   4.5 |  2.76
Other   |            | 0.233      |            |       |  1.42

Nlocal:        1034.67 ave        1112 max         996 min
Histogram: 1 1 2 1 0 0 0 0 0 1
Nghost:        9385.50 ave        9510 max        9286 min
Histogram: 1 1 1 0 0 1 0 1 0 1
Neighs:        68083.7 ave       79088 max       62437 min
Histogram: 2 1 0 1 1 0 0 0 0 1

Total # of neighbors = 408502
Ave neighs/atom = 65.802513
Ave special neighs/atom = 1.9793814
Neighbor list builds = 307
Dangerous builds = 0

if "${myDensity} > 1.0" then "jump SELF break"

next a
jump SELF loop
variable a loop 1000
change_box all x scale 0.95 y scale 0.95 z scale 0.95 remap
Changing box ...
  orthogonal box = (540.33585 537.19563 537.19563) to (659.66415 662.80437 662.80437)
  orthogonal box = (540.33585 540.33585 537.19563) to (659.66415 659.66415 662.80437)
  orthogonal box = (540.33585 540.33585 540.33585) to (659.66415 659.66415 659.66415)
run 8000
Per MPI rank memory allocation (min/avg/max) = 11.90 | 11.98 | 12.35 Mbytes
Step PotEng Temp Press KinEng Lx Ly Lz Pzz S/CPU Density 
 1358001    1444.4466    337.10348    1606.1343    6237.0507    119.32831    119.32831    119.32831    1632.9164            0   0.68077231 
 1366001   -1269.8152    331.15507     33.35648     6126.994    119.32831    119.32831    119.32831   -5.7141702    462.33733   0.68077231 
Loop time of 17.3035 on 6 procs for 8000 steps with 6208 atoms

Performance: 399.456 ns/day, 0.060 hours/ns, 462.334 timesteps/s
95.7% CPU use with 6 MPI tasks x no OpenMP threads

MPI task timing breakdown:
Section |  min time  |  avg time  |  max time  |%varavg| %total
---------------------------------------------------------------
Pair    | 11.352     | 11.995     | 12.901     |  15.4 | 69.32
Bond    | 0.093893   | 0.096135   | 0.098703   |   0.6 |  0.56
Neigh   | 1.5422     | 1.5428     | 1.5433     |   0.0 |  8.92
Comm    | 2.0038     | 2.9724     | 3.639      |  32.4 | 17.18
Output  | 4.1962e-05 | 6.7194e-05 | 0.00017095 |   0.0 |  0.00
Modify  | 0.44149    | 0.45261    | 0.47386    |   1.6 |  2.62
Other   |            | 0.2447     |            |       |  1.41

Nlocal:        1034.67 ave        1074 max         998 min
Histogram: 1 1 0 1 0 1 0 0 1 1
Nghost:        10390.7 ave       10441 max       10362 min
Histogram: 2 1 1 0 0 0 0 1 0 1
Neighs:        77916.2 ave       83173 max       72617 min
Histogram: 1 0 0 2 0 1 0 0 1 1

Total # of neighbors = 467497
Ave neighs/atom = 75.305573
Ave special neighs/atom = 1.9793814
Neighbor list builds = 314
Dangerous builds = 0

if "${myDensity} > 1.0" then "jump SELF break"

next a
jump SELF loop
variable a loop 1000
change_box all x scale 0.95 y scale 0.95 z scale 0.95 remap
Changing box ...
  orthogonal box = (543.31905 540.33585 540.33585) to (656.68095 659.66415 659.66415)
  orthogonal box = (543.31905 543.31905 540.33585) to (656.68095 656.68095 659.66415)
  orthogonal box = (543.31905 543.31905 543.31905) to (656.68095 656.68095 656.68095)
run 8000
Per MPI rank memory allocation (min/avg/max) = 11.91 | 12.00 | 12.36 Mbytes
Step PotEng Temp Press KinEng Lx Ly Lz Pzz S/CPU Density 
 1366001     1248.721    331.15507    1939.6391     6126.994    113.36189    113.36189    113.36189    1904.3362            0   0.79401931 
 1374001   -1637.4792    332.44157    32.740669    6150.7966    113.36189    113.36189    113.36189    55.670878    406.13147   0.79401931 
Loop time of 19.6982 on 6 procs for 8000 steps with 6208 atoms

Performance: 350.895 ns/day, 0.068 hours/ns, 406.129 timesteps/s
96.0% CPU use with 6 MPI tasks x no OpenMP threads

MPI task timing breakdown:
Section |  min time  |  avg time  |  max time  |%varavg| %total
---------------------------------------------------------------
Pair    | 13.52      | 14.038     | 14.561     |   9.5 | 71.27
Bond    | 0.099499   | 0.10252    | 0.10529    |   0.7 |  0.52
Neigh   | 1.7632     | 1.7638     | 1.7647     |   0.0 |  8.95
Comm    | 2.493      | 3.0761     | 3.6378     |  22.0 | 15.62
Output  | 4.4823e-05 | 6.9102e-05 | 0.00016713 |   0.0 |  0.00
Modify  | 0.43894    | 0.45446    | 0.46724    |   1.5 |  2.31
Other   |            | 0.2627     |            |       |  1.33

Nlocal:        1034.67 ave        1072 max        1007 min
Histogram: 1 0 1 0 3 0 0 0 0 1
Nghost:        11353.7 ave       11395 max       11283 min
Histogram: 1 0 0 0 0 0 2 2 0 1
Neighs:        90298.5 ave       97239 max       85742 min
Histogram: 1 1 0 1 2 0 0 0 0 1

Total # of neighbors = 541791
Ave neighs/atom = 87.273035
Ave special neighs/atom = 1.9793814
Neighbor list builds = 314
Dangerous builds = 0

if "${myDensity} > 1.0" then "jump SELF break"

next a
jump SELF loop
variable a loop 1000
change_box all x scale 0.95 y scale 0.95 z scale 0.95 remap
Changing box ...
  orthogonal box = (546.15310 543.31905 543.31905) to (653.84690 656.68095 656.68095)
  orthogonal box = (546.15310 546.15310 543.31905) to (653.84690 653.84690 656.68095)
  orthogonal box = (546.15310 546.15310 546.15310) to (653.84690 653.84690 653.84690)
run 8000
Per MPI rank memory allocation (min/avg/max) = 12.31 | 12.33 | 12.38 Mbytes
Step PotEng Temp Press KinEng Lx Ly Lz Pzz S/CPU Density 
 1374001    960.98876    332.44157    2345.8348    6150.7966     107.6938     107.6938     107.6938     2384.683            0   0.92610504 
 1382001    -2245.145    332.58152    131.57381    6153.3861     107.6938     107.6938     107.6938    151.54008    360.97949   0.92610504 
Loop time of 22.1621 on 6 procs for 8000 steps with 6208 atoms

Performance: 311.884 ns/day, 0.077 hours/ns, 360.977 timesteps/s
96.2% CPU use with 6 MPI tasks x no OpenMP threads

MPI task timing breakdown:
Section |  min time  |  avg time  |  max time  |%varavg| %total
---------------------------------------------------------------
Pair    | 15.643     | 16.269     | 16.861     |  12.7 | 73.41
Bond    | 0.10103    | 0.10319    | 0.1054     |   0.6 |  0.47
Neigh   | 1.8456     | 1.8473     | 1.8486     |   0.1 |  8.34
Comm    | 2.5913     | 3.2122     | 3.8665     |  29.5 | 14.49
Output  | 5.0068e-05 | 7.3075e-05 | 0.00017786 |   0.0 |  0.00
Modify  | 0.44069    | 0.45393    | 0.46614    |   1.6 |  2.05
Other   |            | 0.2765     |            |       |  1.25

Nlocal:        1034.67 ave        1059 max        1015 min
Histogram: 2 0 1 0 0 1 0 1 0 1
Nghost:        12593.7 ave       12634 max       12549 min
Histogram: 1 1 0 0 1 0 0 1 1 1
Neighs:        105219.0 ave      109508 max      101935 min
Histogram: 2 0 0 1 1 0 0 1 0 1

Total # of neighbors = 631315
Ave neighs/atom = 101.69378
Ave special neighs/atom = 1.9793814
Neighbor list builds = 323
Dangerous builds = 0

if "${myDensity} > 1.0" then "jump SELF break"

next a
jump SELF loop
variable a loop 1000
change_box all x scale 0.95 y scale 0.95 z scale 0.95 remap
Changing box ...
  orthogonal box = (548.84545 546.15310 546.15310) to (651.15455 653.84690 653.84690)
  orthogonal box = (548.84545 548.84545 546.15310) to (651.15455 651.15455 653.84690)
  orthogonal box = (548.84545 548.84545 548.84545) to (651.15455 651.15455 651.15455)
run 8000
Per MPI rank memory allocation (min/avg/max) = 12.32 | 12.35 | 12.39 Mbytes
Step PotEng Temp Press KinEng Lx Ly Lz Pzz S/CPU Density 
 1382001    789.62246    332.58152    3010.7656    6153.3861    102.30911    102.30911    102.30911    3025.8436            0    1.0801633 
 1390001    -2842.633    332.32069    533.82001    6148.5602    102.30911    102.30911    102.30911    531.06966    313.17191    1.0801633 
Loop time of 25.5452 on 6 procs for 8000 steps with 6208 atoms

Performance: 270.579 ns/day, 0.089 hours/ns, 313.170 timesteps/s
96.5% CPU use with 6 MPI tasks x no OpenMP threads

MPI task timing breakdown:
Section |  min time  |  avg time  |  max time  |%varavg| %total
---------------------------------------------------------------
Pair    | 18.129     | 19.027     | 19.855     |  12.1 | 74.48
Bond    | 0.093893   | 0.098466   | 0.10531    |   1.3 |  0.39
Neigh   | 2.19       | 2.1921     | 2.1939     |   0.1 |  8.58
Comm    | 2.6646     | 3.4768     | 4.3932     |  28.8 | 13.61
Output  | 5.6982e-05 | 8.4043e-05 | 0.00018215 |   0.0 |  0.00
Modify  | 0.44611    | 0.45566    | 0.4657     |   1.2 |  1.78
Other   |            | 0.2951     |            |       |  1.16

Nlocal:        1034.67 ave        1049 max        1023 min
Histogram: 1 1 0 0 0 3 0 0 0 1
Nghost:        13814.8 ave       13868 max       13749 min
Histogram: 1 0 0 1 1 1 0 0 0 2
Neighs:        122877.0 ave      125832 max      119738 min
Histogram: 1 0 0 0 0 4 0 0 0 1

Total # of neighbors = 737260
Ave neighs/atom = 118.75966
Ave special neighs/atom = 1.9793814
Neighbor list builds = 321
Dangerous builds = 0

if "${myDensity} > 1.0" then "jump SELF break"
jump SELF break

####Replicate to form slab

replicate 1 1 7
Replicating atoms ...
  orthogonal box = (548.84545 548.84545 548.84545) to (651.15455 651.15455 1265.0092)
  1 by 1 by 6 MPI processor grid
  43456 atoms
  43008 bonds
Finding 1-2 1-3 1-4 neighbors ...
  special bond factors lj:    0        1        1       
  special bond factors coul:  0        1        1       
     2 = max # of 1-2 neighbors
     6 = max # of special neighbors
  special bonds CPU = 0.001 seconds
  replicate CPU = 0.005 seconds

run 1
Per MPI rank memory allocation (min/avg/max) = 26.63 | 26.66 | 26.70 Mbytes
Step PotEng Temp Press KinEng Lx Ly Lz Pzz S/CPU Density 
 1390001   -19898.431    332.27481    533.82001    43039.921    102.30911    102.30911    716.16376    531.06966            0    1.0801633 
 1390002   -19974.505    332.79188    532.73949    43106.898    102.30911    102.30911    716.16376    530.50947    45.427807    1.0801633 
Loop time of 0.0220552 on 6 procs for 1 steps with 43456 atoms

Performance: 39.174 ns/day, 0.613 hours/ns, 45.341 timesteps/s
99.8% CPU use with 6 MPI tasks x no OpenMP threads

MPI task timing breakdown:
Section |  min time  |  avg time  |  max time  |%varavg| %total
---------------------------------------------------------------
Pair    | 0.019588   | 0.020146   | 0.02081    |   0.4 | 91.35
Bond    | 0.00015688 | 0.00016268 | 0.00018311 |   0.0 |  0.74
Neigh   | 0          | 0          | 0          |   0.0 |  0.00
Comm    | 0.00044489 | 0.0010823  | 0.0016689  |   1.5 |  4.91
Output  | 8.1062e-05 | 0.00014309 | 0.00030494 |   0.0 |  0.65
Modify  | 0.00040197 | 0.00040972 | 0.00041795 |   0.0 |  1.86
Other   |            | 0.0001109  |            |       |  0.50

Nlocal:        7242.67 ave        7261 max        7226 min
Histogram: 2 0 1 0 0 0 0 1 1 1
Nghost:        29467.2 ave       29520 max       29430 min
Histogram: 2 0 1 1 0 0 0 1 0 1
Neighs:        860137.0 ave      866281 max      854325 min
Histogram: 1 1 0 1 0 0 2 0 0 1

Total # of neighbors = 5160820
Ave neighs/atom = 118.75966
Ave special neighs/atom = 1.9793814
Neighbor list builds = 0
Dangerous builds = 0

###Delete replicated atoms

group under molecule < 129
12416 atoms in group under
group over molecule  > 192
24832 atoms in group over
group replica union under over
37248 atoms in group replica
delete_atoms group replica
WARNING: Ignoring 'compress yes' for molecular system (../delete_atoms.cpp:125)
Deleted 37248 atoms, new total = 6208

###Run simulation

fix           fixcentro all recenter INIT INIT INIT
fix           fxbal  all balance 1000 1.05 rcb

compute densidad all chunk/atom bin/1d z lower 0.01 units reduced
fix 3 all ave/chunk 1000 70 100000 densidad density/mass file den-$d-$T.profile
fix 3 all ave/chunk 1000 70 100000 densidad density/mass file den-TIA_WT-$T.profile
fix 3 all ave/chunk 1000 70 100000 densidad density/mass file den-TIA_WT-325.profile

compute  rad all gyration
variable t equal step
variable r equal c_rad
fix      radfile all print 10000 "$t $r" file rad-$d-$T.dat screen no
fix      radfile all print 10000 "$t $r" file rad-TIA_WT-$T.dat screen no
fix      radfile all print 10000 "$t $r" file rad-TIA_WT-325.dat screen no

compute	msd all msd com yes
fix	msd all ave/time 1 1 10000 c_msd[4] file mds-$d-$T.dat
fix	msd all ave/time 1 1 10000 c_msd[4] file mds-TIA_WT-$T.dat
fix	msd all ave/time 1 1 10000 c_msd[4] file mds-TIA_WT-325.dat

run 10000000
Per MPI rank memory allocation (min/avg/max) = 28.88 | 29.17 | 30.11 Mbytes
Step PotEng Temp Press KinEng Lx Ly Lz Pzz S/CPU Density 
 1390002   -2117.1967    332.82936    72.047621    6157.9716    102.30911    102.30911    716.16376     73.05958            0   0.15430905 
 2000000   -899.65378    324.32807    1.4632438    6000.6815    102.30911    102.30911    716.16376     1.438544     537.7003   0.15430905 
 3000000   -938.39102    324.86584   -3.8239477    6010.6314    102.30911    102.30911    716.16376   -4.9146753    538.39932   0.15430905 
 4000000   -921.23482    326.93591  -0.60115234    6048.9316    102.30911    102.30911    716.16376   -4.4490222    541.54647   0.15430905 
 5000000   -850.28431    323.63768    4.6643219    5987.9082    102.30911    102.30911    716.16376    7.3498521    533.61702   0.15430905 
 6000000   -915.45381    318.32287    1.6246838     5889.574    102.30911    102.30911    716.16376   -3.1064257    539.15658   0.15430905 
 7000000    -1068.198    323.73858   0.69437127    5989.7749    102.30911    102.30911    716.16376    3.5255376    536.61764   0.15430905 
 8000000   -972.80988     326.3888    3.7122317     6038.809    102.30911    102.30911    716.16376     2.672157    528.07706   0.15430905 
 9000000   -1025.9019    327.81666    1.2170368     6065.227    102.30911    102.30911    716.16376    1.3457481    526.61847   0.15430905 
10000000   -931.23615    319.66162    -5.285455    5914.3434    102.30911    102.30911    716.16376    -3.312974    532.60439   0.15430905 
11000000   -859.98171    329.01733    3.7391631    6087.4418    102.30911    102.30911    716.16376    5.9375294    539.39115   0.15430905 
11390002   -950.34328    322.95552   -2.8651845    5975.2869    102.30911    102.30911    716.16376  -0.44217267    542.89837   0.15430905 
Loop time of 18673.1 on 6 procs for 10000000 steps with 6208 atoms

Performance: 462.698 ns/day, 0.052 hours/ns, 535.530 timesteps/s
99.3% CPU use with 6 MPI tasks x no OpenMP threads

MPI task timing breakdown:
Section |  min time  |  avg time  |  max time  |%varavg| %total
---------------------------------------------------------------
Pair    | 9038.9     | 12458      | 13666      |1419.9 | 66.72
Bond    | 113.91     | 119.47     | 124.5      |  34.9 |  0.64
Neigh   | 1548.1     | 1558.7     | 1572.7     |  19.7 |  8.35
Comm    | 2415.2     | 3538.4     | 6597.6     |2402.6 | 18.95
Output  | 0.30057    | 0.38224    | 0.411      |   6.1 |  0.00
Modify  | 767.29     | 861.3      | 1209.3     | 533.3 |  4.61
Other   |            | 136.4      |            |       |  0.73

Nlocal:        1034.67 ave        1047 max        1022 min
Histogram: 1 0 0 1 1 1 0 1 0 1
Nghost:        7418.50 ave        9053 max        5067 min
Histogram: 1 0 1 0 0 0 1 0 2 1
Neighs:        63924.3 ave       70357 max       47881 min
Histogram: 1 0 0 0 0 0 0 1 3 1

Total # of neighbors = 383546
Ave neighs/atom = 61.782539
Ave special neighs/atom = 1.9793814
Neighbor list builds = 362267
Dangerous builds = 0

write_data data$d-$T.out
write_data dataTIA_WT-$T.out
write_data dataTIA_WT-325.out
System init for write_data ...

shell cd ..

clear

next x

jump SELF loopT
variable x loop 5

variable T equal 315+5*$x
variable T equal 315+5*3

units       real
dimension   3
boundary    p p p
atom_style  full

shell cd $d/
shell cd TIA_WT/

read_data $d.config
read_data TIA_WT.config
Reading data file ...
  orthogonal box = (0.0000000 0.0000000 0.0000000) to (300.00000 300.00000 300.00000)
  1 by 2 by 3 MPI processor grid
  reading atoms ...
  97 atoms
  scanning bonds ...
  1 = max bonds/atom
  reading bonds ...
  96 bonds
Finding 1-2 1-3 1-4 neighbors ...
  special bond factors lj:    0        0        0       
  special bond factors coul:  0        0        0       
     2 = max # of 1-2 neighbors
     2 = max # of 1-3 neighbors
     4 = max # of 1-4 neighbors
     6 = max # of special neighbors
  special bonds CPU = 0.000 seconds
  read_data CPU = 0.036 seconds

log log.$T
log log.330
