
bond_style  harmonic
dielectric  80.0

set type 25 charge 0.75
Setting atom values ...
  0 settings made for charge
set type 27 charge -0.75
Setting atom values ...
  0 settings made for charge
set type 28 charge -0.75
Setting atom values ...
  0 settings made for charge
set type 36 charge 0.375
Setting atom values ...
  0 settings made for charge
set type 23 charge 0.75
Setting atom values ...
  0 settings made for charge

set type 5 charge 0.75
Setting atom values ...
  1 settings made for charge
set type 7 charge -0.75
Setting atom values ...
  0 settings made for charge
set type 3  charge 0.75
Setting atom values ...
  0 settings made for charge
set type 16 charge 0.375
Setting atom values ...
  0 settings made for charge
set type 8  charge -0.75
Setting atom values ...
  1 settings made for charge

bond_coeff          1     9.600     3.81
#bond_coeff          2     9.600     5.00

pair_style  hybrid/overlay wf/cut 25.0 coul/debye 0.126 0.0

pair_coeff 30 30 wf/cut 0.004751 6.45565 1 3 19.367
pair_coeff 1 1 wf/cut 0.039564 6.467950871367303 1 2 19.403852614101908
pair_coeff 1 2 wf/cut 0.068017 5.576178403526399 1 2 16.728535210579196
pair_coeff 1 3 wf/cut 0.032686 6.5677835361737795 1 2 19.70335060852134
pair_coeff 1 4 wf/cut 0.035161 6.178228033595178 1 2 18.534684100785533
pair_coeff 1 5 wf/cut 0.171515 6.643964892255349 1 2 19.93189467676605
pair_coeff 1 6 wf/cut 0.044522 5.868502140125925 1 2 17.605506420377775
pair_coeff 1 7 wf/cut 0.073172 6.14145960937047 1 2 18.424378828111408
pair_coeff 1 8 wf/cut 0.077577 6.318176525841784 1 2 18.95452957752535
pair_coeff 1 9 wf/cut 0.229375 6.590037435016079 1 2 19.770112305048237
pair_coeff 1 10 wf/cut 0.022571 6.320571545407576 1 2 18.96171463622273
pair_coeff 1 11 wf/cut 0.025281 6.483443734640188 1 2 19.450331203920562
pair_coeff 1 12 wf/cut 0.120006 6.36518785664648 1 2 19.09556356993944
pair_coeff 1 13 wf/cut 0.294931 6.755728450520449 1 2 20.267185351561345
pair_coeff 1 14 wf/cut 0.215603 6.538208522101147 1 2 19.61462556630344
pair_coeff 1 15 wf/cut 0.050582 5.938940625510648 1 2 17.816821876531947
pair_coeff 1 16 wf/cut 0.203491 6.392507281968151 1 2 19.177521845904455
pair_coeff 1 17 wf/cut 0.116706 6.188018494610175 1 2 18.564055483830522
pair_coeff 1 18 wf/cut 0.059120 6.1344640513130955 1 2 18.403392153939286
pair_coeff 1 19 wf/cut 0.054437 6.094294827619396 1 2 18.282884482858186
pair_coeff 1 20 wf/cut 0.019979 6.496393035701747 1 2 19.48917910710524
pair_coeff 1 21 wf/cut 0.033511 6.472967463905089 1 2 19.418902391715267
pair_coeff 1 22 wf/cut 0.053464 5.579884038976499 1 2 16.7396521169295
pair_coeff 1 23 wf/cut 0.028840 6.572908139010548 1 2 19.718724417031645
pair_coeff 1 24 wf/cut 0.030487 6.183085528083141 1 2 18.549256584249424
pair_coeff 1 25 wf/cut 0.126057 6.646517494086263 1 2 19.93955248225879
pair_coeff 1 26 wf/cut 0.037087 5.873266644604083 1 2 17.61979993381225
pair_coeff 1 27 wf/cut 0.057192 6.145621669676131 1 2 18.43686500902839
pair_coeff 1 28 wf/cut 0.060220 6.322430858089529 1 2 18.967292574268587
pair_coeff 1 29 wf/cut 0.166559 6.592040039094211 1 2 19.776120117282634
pair_coeff 1 30 wf/cut 0.022157 6.322886509244067 1 2 18.9686595277322
pair_coeff 1 31 wf/cut 0.023649 6.486360198534797 1 2 19.45908059560439
pair_coeff 1 32 wf/cut 0.089698 6.368425539955892 1 2 19.105276619867674
pair_coeff 1 33 wf/cut 0.212282 6.7573688868401405 1 2 20.27210666052042
pair_coeff 1 34 wf/cut 0.156918 6.5402914181442595 1 2 19.620874254432778
pair_coeff 1 35 wf/cut 0.041217 5.943583554201671 1 2 17.830750662605013
pair_coeff 1 36 wf/cut 0.148384 6.394666170151445 1 2 19.183998510454334
pair_coeff 1 37 wf/cut 0.087498 6.191219964195186 1 2 18.57365989258556
pair_coeff 1 38 wf/cut 0.047275 6.139108925912469 1 2 18.417326777737408
pair_coeff 1 39 wf/cut 0.043970 6.098946985727069 1 2 18.296840957181207
pair_coeff 1 40 wf/cut 0.019979 6.496393035701747 1 2 19.48917910710524
pair_coeff 2 2 wf/cut 0.096470 4.695110240398406 1 2 14.085330721195216
pair_coeff 2 3 wf/cut 0.061139 5.671338290828199 1 2 17.014014872484598
pair_coeff 2 4 wf/cut 0.063614 5.284424971479424 1 2 15.85327491443827
pair_coeff 2 5 wf/cut 0.199968 5.766386193227936 1 2 17.299158579683805
pair_coeff 2 6 wf/cut 0.072975 4.980134552672144 1 2 14.940403658016432
pair_coeff 2 7 wf/cut 0.101625 5.2592548053112145 1 2 15.777764415933643
pair_coeff 2 8 wf/cut 0.106030 5.436374588857539 1 2 16.30912376657262
pair_coeff 2 9 wf/cut 0.257828 5.7131654456309935 1 2 17.139496336892982
pair_coeff 2 10 wf/cut 0.051024 5.412393397897493 1 2 16.23718019369248
pair_coeff 2 11 wf/cut 0.053734 5.578930397816427 1 2 16.736791193449278
pair_coeff 2 12 wf/cut 0.148459 5.486299347261422 1 2 16.458898041784266
pair_coeff 2 13 wf/cut 0.323384 5.879238002082802 1 2 17.63771400624841
pair_coeff 2 14 wf/cut 0.244056 5.661218822883835 1 2 16.983656468651503
pair_coeff 2 15 wf/cut 0.079035 5.052524512175333 1 2 15.157573536526
pair_coeff 2 16 wf/cut 0.231944 5.515411637199979 1 2 16.54623491159994
pair_coeff 2 17 wf/cut 0.145159 5.3090163197417555 1 2 15.927048959225267
pair_coeff 2 18 wf/cut 0.087573 5.249990542761369 1 2 15.749971628284106
pair_coeff 2 19 wf/cut 0.082890 5.208722790322849 1 2 15.626168370968546
pair_coeff 2 20 wf/cut 0.048432 5.580329252471181 1 2 16.740987757413542
pair_coeff 2 21 wf/cut 0.061964 5.577215175821233 1 2 16.731645527463698
pair_coeff 2 22 wf/cut 0.081917 4.696396560631559 1 2 14.089189681894677
pair_coeff 2 23 wf/cut 0.057293 5.67211261999139 1 2 17.016337859974172
pair_coeff 2 24 wf/cut 0.058940 5.285212528563172 1 2 15.855637585689518
pair_coeff 2 25 wf/cut 0.154510 5.767769508320207 1 2 17.30330852496062
pair_coeff 2 26 wf/cut 0.065540 4.981125987510791 1 2 14.943377962532374
pair_coeff 2 27 wf/cut 0.085645 5.260651874488179 1 2 15.781955623464537
pair_coeff 2 28 wf/cut 0.088673 5.437809343618614 1 2 16.313428030855842
pair_coeff 2 29 wf/cut 0.195012 5.714358676536591 1 2 17.143076029609773
pair_coeff 2 30 wf/cut 0.050610 5.412530359493723 1 2 16.23759107848117
pair_coeff 2 31 wf/cut 0.052102 5.579325356579805 1 2 16.737976069739414
pair_coeff 2 32 wf/cut 0.118151 5.487774115196598 1 2 16.463322345589795
pair_coeff 2 33 wf/cut 0.240735 5.880303283956183 1 2 17.64090985186855
pair_coeff 2 34 wf/cut 0.185371 5.662447134978403 1 2 16.987341404935208
pair_coeff 2 35 wf/cut 0.069670 5.053695239348068 1 2 15.161085718044204
pair_coeff 2 36 wf/cut 0.176837 5.516638738971832 1 2 16.549916216915495
pair_coeff 2 37 wf/cut 0.115951 5.310437234694913 1 2 15.931311704084738
pair_coeff 2 38 wf/cut 0.075728 5.251325825579545 1 2 15.753977476738633
pair_coeff 2 39 wf/cut 0.072423 5.20997288304294 1 2 15.629918649128818
pair_coeff 2 40 wf/cut 0.048432 5.580329252471181 1 2 16.740987757413542
pair_coeff 3 3 wf/cut 0.019117 6.671340524039856 1 2 20.014021572119567
pair_coeff 3 4 wf/cut 0.028283 6.279399881910995 1 2 18.838199645732985
pair_coeff 3 5 wf/cut 0.121938 6.73819193132635 1 2 20.21457579397905
pair_coeff 3 6 wf/cut 0.037644 5.966686347623176 1 2 17.90005904286953
pair_coeff 3 7 wf/cut 0.000493 6.236987380482699 1 2 18.710962141448096
pair_coeff 3 8 wf/cut 0.000526 6.413575163938182 1 2 19.240725491814544
pair_coeff 3 9 wf/cut 0.102701 6.684083406034673 1 2 20.052250218104017
pair_coeff 3 10 wf/cut 0.015693 6.433541011383533 1 2 19.3006230341506
pair_coeff 3 11 wf/cut 0.018403 6.592557574989555 1 2 19.777672724968664
pair_coeff 3 12 wf/cut 0.113128 6.4596938105680355 1 2 19.37908143170411
pair_coeff 3 13 wf/cut 0.104796 6.849685211660051 1 2 20.549055634980153
pair_coeff 3 14 wf/cut 0.115276 6.632280360446061 1 2 19.896841081338184
pair_coeff 3 15 wf/cut 0.043704 6.036179732070119 1 2 18.10853919621036
pair_coeff 3 16 wf/cut 0.087370 6.4866030031823305 1 2 19.45980900954699
pair_coeff 3 17 wf/cut 0.109828 6.2825460057664415 1 2 18.847638017299325
pair_coeff 3 18 wf/cut 0.052242 6.2310615597122725 1 2 18.693184679136817
pair_coeff 3 19 wf/cut 0.047559 6.191153675456269 1 2 18.573461026368804
pair_coeff 3 20 wf/cut 0.013101 6.617996254538358 1 2 19.853988763615074
pair_coeff 3 21 wf/cut 0.026633 6.575236990212751 1 2 19.725710970638254
pair_coeff 3 22 wf/cut 0.046586 5.67591070475063 1 2 17.02773211425189
pair_coeff 3 23 wf/cut 0.016267 6.6786690213492745 1 2 20.036007064047823
pair_coeff 3 24 wf/cut 0.023609 6.28697050091405 1 2 18.860911502742148
pair_coeff 3 25 wf/cut 0.088471 6.7410021187479785 1 2 20.223006356243935
pair_coeff 3 26 wf/cut 0.030209 5.973496417353158 1 2 17.920489252059475
pair_coeff 3 27 wf/cut 0.000375 6.242202340571064 1 2 18.726607021713193
pair_coeff 3 28 wf/cut 0.000395 6.41884518513886 1 2 19.25653555541658
pair_coeff 3 29 wf/cut 0.087295 6.686244113621416 1 2 20.058732340864246
pair_coeff 3 30 wf/cut 0.015279 6.438064853494475 1 2 19.314194560483426
pair_coeff 3 31 wf/cut 0.016771 6.597859600272992 1 2 19.793578800818977
pair_coeff 3 32 wf/cut 0.082820 6.463434808995108 1 2 19.390304426985324
pair_coeff 3 33 wf/cut 0.089077 6.851438991432198 1 2 20.554316974296594
pair_coeff 3 34 wf/cut 0.097985 6.634536462444846 1 2 19.903609387334537
pair_coeff 3 35 wf/cut 0.034339 6.042553594266142 1 2 18.127660782798426
pair_coeff 3 36 wf/cut 0.062880 6.488951472342971 1 2 19.466854417028912
pair_coeff 3 37 wf/cut 0.080620 6.286259565568102 1 2 18.858778696704306
pair_coeff 3 38 wf/cut 0.040397 6.23694969931501 1 2 18.71084909794503
pair_coeff 3 39 wf/cut 0.037092 6.197406382364393 1 2 18.59221914709318
pair_coeff 3 40 wf/cut 0.013101 6.617996254538358 1 2 19.853988763615074
pair_coeff 4 4 wf/cut 0.030758 5.8890615748048605 1 2 17.667184724414582
pair_coeff 4 5 wf/cut 0.167112 6.352015695367313 1 2 19.056047086101938
pair_coeff 4 6 wf/cut 0.040119 5.577947754246859 1 2 16.733843262740578
pair_coeff 4 7 wf/cut 0.068769 5.849866323299111 1 2 17.549598969897332
pair_coeff 4 8 wf/cut 0.073174 6.026541387517959 1 2 18.079624162553877
pair_coeff 4 9 wf/cut 0.224972 6.298063007043266 1 2 18.894189021129797
pair_coeff 4 10 wf/cut 0.018168 6.03696547344559 1 2 18.11089642033677
pair_coeff 4 11 wf/cut 0.020878 6.198088878491606 1 2 18.594266635474817
pair_coeff 4 12 wf/cut 0.115603 6.073287961608412 1 2 18.219863884825237
pair_coeff 4 13 wf/cut 0.290527 6.463775207339586 1 2 19.39132562201876
pair_coeff 4 14 wf/cut 0.211200 6.246251077325644 1 2 18.73875323197693
pair_coeff 4 15 wf/cut 0.046179 5.648007650359314 1 2 16.94402295107794
pair_coeff 4 16 wf/cut 0.199088 6.1005286446452045 1 2 18.301585933935613
pair_coeff 4 17 wf/cut 0.112303 5.896099182190375 1 2 17.688297546571125
pair_coeff 4 18 wf/cut 0.054717 5.84319611761197 1 2 17.52958835283591
pair_coeff 4 19 wf/cut 0.050034 5.803211551983609 1 2 17.40963465595083
pair_coeff 4 20 wf/cut 0.015576 6.214617146494642 1 2 18.643851439483925
pair_coeff 4 21 wf/cut 0.029108 6.184377266229273 1 2 18.55313179868782
pair_coeff 4 22 wf/cut 0.049061 5.288433024843104 1 2 15.865299074529311
pair_coeff 4 23 wf/cut 0.024437 6.285985931141882 1 2 18.857957793425648
pair_coeff 4 24 wf/cut 0.026084 5.895181038887271 1 2 17.685543116661812
pair_coeff 4 25 wf/cut 0.121654 6.3546176961456355 1 2 19.063853088436908
pair_coeff 4 26 wf/cut 0.032684 5.583620888610048 1 2 16.75086266583014
pair_coeff 4 27 wf/cut 0.052789 5.854435916763915 1 2 17.563307750291745
pair_coeff 4 28 wf/cut 0.055817 6.031184910048361 1 2 18.093554730145083
pair_coeff 4 29 wf/cut 0.162155 6.300073473520442 1 2 18.900220420561325
pair_coeff 4 30 wf/cut 0.017754 6.038590687548953 1 2 18.115772062646858
pair_coeff 4 31 wf/cut 0.019246 6.20213243224441 1 2 18.606397296733228
pair_coeff 4 32 wf/cut 0.085295 6.076667470375622 1 2 18.230002411126865
pair_coeff 4 33 wf/cut 0.207879 6.4653998696548625 1 2 19.396199608964587
pair_coeff 4 34 wf/cut 0.152515 6.248347277402027 1 2 18.74504183220608
pair_coeff 4 35 wf/cut 0.036814 5.653400669933968 1 2 16.960202009801904
pair_coeff 4 36 wf/cut 0.143981 6.1027057764377375 1 2 18.308117329313212
pair_coeff 4 37 wf/cut 0.083095 5.899444861363162 1 2 17.698334584089487
pair_coeff 4 38 wf/cut 0.042872 5.848454222246143 1 2 17.545362666738427
pair_coeff 4 39 wf/cut 0.039567 5.808550835350359 1 2 17.425652506051076
pair_coeff 4 40 wf/cut 0.015576 6.214617146494642 1 2 18.643851439483925
pair_coeff 5 5 wf/cut 0.089916 6.839051042416954 1 2 20.51715312725086
pair_coeff 5 6 wf/cut 0.176473 6.049093128275473 1 2 18.14727938482642
pair_coeff 5 7 wf/cut 0.001522 6.329860382208001 1 2 18.989581146624005
pair_coeff 5 8 wf/cut 0.001554 6.507087894628845 1 2 19.521263683886534
pair_coeff 5 9 wf/cut 0.607820 6.786238537205683 1 2 20.358715611617047
pair_coeff 5 10 wf/cut 0.154522 6.477800731622431 1 2 19.433402194867295
pair_coeff 5 11 wf/cut 0.157232 6.644606745714045 1 2 19.933820237142136
pair_coeff 5 12 wf/cut 0.251957 6.5582801074116395 1 2 19.674840322234918
pair_coeff 5 13 wf/cut 0.691657 6.952550947859904 1 2 20.85765284357971
pair_coeff 5 14 wf/cut 0.544942 6.734244851368496 1 2 20.20273455410549
pair_coeff 5 15 wf/cut 0.182533 6.121907195991114 1 2 18.365721587973344
pair_coeff 5 16 wf/cut 0.124237 6.588371399225676 1 2 19.76511419767703
pair_coeff 5 17 wf/cut 0.248657 6.381027696653046 1 2 19.143083089959138
pair_coeff 5 18 wf/cut 0.191071 6.319850876308843 1 2 18.95955262892653
pair_coeff 5 19 wf/cut 0.186388 6.2782756347766915 1 2 18.834826904330075
pair_coeff 5 20 wf/cut 0.151930 6.644914452592528 1 2 19.934743357777585
pair_coeff 5 21 wf/cut 0.165462 6.6442230427261695 1 2 19.93266912817851
pair_coeff 5 22 wf/cut 0.185415 5.7668587075646895 1 2 17.300576122694068
pair_coeff 5 23 wf/cut 0.160791 6.738370816695987 1 2 20.21511245008796
pair_coeff 5 24 wf/cut 0.162438 6.352227758045304 1 2 19.056683274135914
pair_coeff 5 25 wf/cut 0.076528 6.839775073180529 1 2 20.519325219541585
pair_coeff 5 26 wf/cut 0.169038 6.0493803544908396 1 2 18.14814106347252
pair_coeff 5 27 wf/cut 0.001403 6.330338025744615 1 2 18.991014077233842
pair_coeff 5 28 wf/cut 0.001424 6.507609785991295 1 2 19.522829357973883
pair_coeff 5 29 wf/cut 0.516647 6.786966179847217 1 2 20.36089853954165
pair_coeff 5 30 wf/cut 0.154108 6.477855546012645 1 2 19.433566638037934
pair_coeff 5 31 wf/cut 0.155600 6.644688317632491 1 2 19.934064952897472
pair_coeff 5 32 wf/cut 0.221649 6.558922216808411 1 2 19.676766650425233
pair_coeff 5 33 wf/cut 0.587908 6.953270762564632 1 2 20.859812287693895
pair_coeff 5 34 wf/cut 0.463200 6.734965561624807 1 2 20.20489668487442
pair_coeff 5 35 wf/cut 0.173168 6.122239691611766 1 2 18.366719074835295
pair_coeff 5 36 wf/cut 0.103828 6.589083179632521 1 2 19.767249538897563
pair_coeff 5 37 wf/cut 0.219449 6.381655047319296 1 2 19.14496514195789
pair_coeff 5 38 wf/cut 0.179226 6.320242196579514 1 2 18.96072658973854
pair_coeff 5 39 wf/cut 0.175921 6.27864243896636 1 2 18.83592731689908
pair_coeff 5 40 wf/cut 0.151930 6.644914452592528 1 2 19.934743357777585
pair_coeff 6 6 wf/cut 0.049480 5.270073550243385 1 2 15.810220650730155
pair_coeff 6 7 wf/cut 0.078130 5.545103888084069 1 2 16.635311664252207
pair_coeff 6 8 wf/cut 0.082535 5.721983178129665 1 2 17.165949534388993
pair_coeff 6 9 wf/cut 0.234333 5.995374866482686 1 2 17.986124599448058
pair_coeff 6 10 wf/cut 0.027529 5.714672842433839 1 2 17.14401852730152
pair_coeff 6 11 wf/cut 0.030239 5.879183169613761 1 2 17.637549508841282
pair_coeff 6 12 wf/cut 0.124964 5.769878425481944 1 2 17.30963527644583
pair_coeff 6 13 wf/cut 0.299889 6.1612197345718664 1 2 18.4836592037156
pair_coeff 6 14 wf/cut 0.220561 5.943524169558512 1 2 17.830572508675537
pair_coeff 6 15 wf/cut 0.055540 5.341186580911172 1 2 16.023559742733518
pair_coeff 6 16 wf/cut 0.208449 5.797765867232053 1 2 17.393297601696162
pair_coeff 6 17 wf/cut 0.121665 5.592676667454632 1 2 16.778030002363895
pair_coeff 6 18 wf/cut 0.064078 5.537383848868321 1 2 16.612151546604963
pair_coeff 6 19 wf/cut 0.059395 5.496867679432823 1 2 16.490603038298467
pair_coeff 6 20 wf/cut 0.024937 5.887264113119765 1 2 17.661792339359295
pair_coeff 6 21 wf/cut 0.038469 5.872091702440819 1 2 17.616275107322455
pair_coeff 6 22 wf/cut 0.058422 4.983057318967985 1 2 14.949171956903955
pair_coeff 6 23 wf/cut 0.033798 5.970212624670237 1 2 17.91063787401071
pair_coeff 6 24 wf/cut 0.035445 5.581322386503443 1 2 16.743967159510326
pair_coeff 6 25 wf/cut 0.131015 6.051283655448215 1 2 18.153850966344642
pair_coeff 6 26 wf/cut 0.042046 5.273529178305013 1 2 15.82058753491504
pair_coeff 6 27 wf/cut 0.062150 5.548382201124551 1 2 16.645146603373654
pair_coeff 6 28 wf/cut 0.065178 5.725365872076537 1 2 17.17609761622961
pair_coeff 6 29 wf/cut 0.171517 5.997120040197383 1 2 17.991360120592148
pair_coeff 6 30 wf/cut 0.027116 5.716115591130418 1 2 17.148346773391253
pair_coeff 6 31 wf/cut 0.028607 5.881066148485684 1 2 17.643198445457053
pair_coeff 6 32 wf/cut 0.094656 5.77257425641905 1 2 17.317722769257152
pair_coeff 6 33 wf/cut 0.217240 6.16266774871136 1 2 18.48800324613408
pair_coeff 6 34 wf/cut 0.161876 5.945332519051 1 2 17.835997557153
pair_coeff 6 35 wf/cut 0.046175 5.344636755005952 1 2 16.03391026501786
pair_coeff 6 36 wf/cut 0.153342 5.799630893236802 1 2 17.398892679710407
pair_coeff 6 37 wf/cut 0.092457 5.595329366190724 1 2 16.785988098572172
pair_coeff 6 38 wf/cut 0.052233 5.540935423926066 1 2 16.6228062717782
pair_coeff 6 39 wf/cut 0.048928 5.50037559161048 1 2 16.50112677483144
pair_coeff 6 40 wf/cut 0.024937 5.887264113119765 1 2 17.661792339359295
pair_coeff 7 7 wf/cut 0.079096 5.823521721060312 1 2 17.470565163180936
pair_coeff 7 8 wf/cut 0.082359 6.000582237524121 1 2 18.001746712572363
pair_coeff 7 9 wf/cut 0.262983 6.276473791430636 1 2 18.829421374291908
pair_coeff 7 10 wf/cut 0.056178 5.978735433494051 1 2 17.93620630048215
pair_coeff 7 11 wf/cut 0.058888 6.145089275635634 1 2 18.4352678269069
pair_coeff 7 12 wf/cut 0.153614 6.0500403862929435 1 2 18.150121158878832
pair_coeff 7 13 wf/cut 0.328538 6.4424403069543335 1 2 19.327320920863002
pair_coeff 7 14 wf/cut 0.249211 6.224557346027278 1 2 18.673672038081833
pair_coeff 7 15 wf/cut 0.084189 5.617298771179795 1 2 16.851896313539385
pair_coeff 7 16 wf/cut 0.001758 6.078759471752929 1 2 18.236278415258788
pair_coeff 7 17 wf/cut 0.150314 5.872796196825872 1 2 17.618388590477615
pair_coeff 7 18 wf/cut 0.092728 5.81454574012806 1 2 17.44363722038418
pair_coeff 7 19 wf/cut 0.088045 5.773404302618334 1 2 17.320212907855
pair_coeff 7 20 wf/cut 0.053587 6.146988238119009 1 2 18.44096471435703
pair_coeff 7 21 wf/cut 0.067118 6.142810853550669 1 2 18.428432560652006
pair_coeff 7 22 wf/cut 0.087071 5.260822534908925 1 2 15.782467604726776
pair_coeff 7 23 wf/cut 0.062448 6.238009317192061 1 2 18.714027951576185
pair_coeff 7 24 wf/cut 0.064094 5.850906179325341 1 2 17.552718537976023
pair_coeff 7 25 wf/cut 0.159665 6.331479448731908 1 2 18.994438346195725
pair_coeff 7 26 wf/cut 0.070695 5.546505225276659 1 2 16.639515675829976
pair_coeff 7 27 wf/cut 0.067258 5.825264832984326 1 2 17.47579449895298
pair_coeff 7 28 wf/cut 0.069297 6.002427424339147 1 2 18.00728227301744
pair_coeff 7 29 wf/cut 0.200166 6.277866750279897 1 2 18.83360025083969
pair_coeff 7 30 wf/cut 0.055765 5.978921905643417 1 2 17.93676571693025
pair_coeff 7 31 wf/cut 0.057257 6.145621669676131 1 2 18.43686500902839
pair_coeff 7 32 wf/cut 0.123306 6.051811079871612 1 2 18.155433239614837
pair_coeff 7 33 wf/cut 0.245890 6.4436539809330755 1 2 19.330961942799227
pair_coeff 7 34 wf/cut 0.190526 6.225980124267849 1 2 18.677940372803548
pair_coeff 7 35 wf/cut 0.074825 5.6188072088999945 1 2 16.856421626699984
pair_coeff 7 36 wf/cut 0.001350 6.080187764149639 1 2 18.24056329244892
pair_coeff 7 37 wf/cut 0.121106 5.874523045623452 1 2 17.623569136870355
pair_coeff 7 38 wf/cut 0.080883 5.816239431041905 1 2 17.448718293125715
pair_coeff 7 39 wf/cut 0.077578 5.775001596638995 1 2 17.325004789916985
pair_coeff 7 40 wf/cut 0.053587 6.146988238119009 1 2 18.44096471435703
pair_coeff 8 8 wf/cut 0.085622 6.177670315650897 1 2 18.533010946952693
pair_coeff 8 9 wf/cut 0.267388 6.453698205558216 1 2 19.36109461667465
pair_coeff 8 10 wf/cut 0.060583 6.155038804583549 1 2 18.46511641375065
pair_coeff 8 11 wf/cut 0.063293 6.321457293122011 1 2 18.964371879366034
pair_coeff 8 12 wf/cut 0.158019 6.22721384211578 1 2 18.681641526347338
pair_coeff 8 13 wf/cut 0.332943 6.61969178186508 1 2 19.85907534559524
pair_coeff 8 14 wf/cut 0.253616 6.401798946045327 1 2 19.205396838135982
pair_coeff 8 15 wf/cut 0.088594 5.794219764312674 1 2 17.382659292938023
pair_coeff 8 16 wf/cut 0.001791 6.2560007029022255 1 2 18.768002108706675
pair_coeff 8 17 wf/cut 0.154719 6.049988923928926 1 2 18.14996677178678
pair_coeff 8 18 wf/cut 0.097133 5.991524845146615 1 2 17.974574535439846
pair_coeff 8 19 wf/cut 0.092450 5.950364732175825 1 2 17.851094196527477
pair_coeff 8 20 wf/cut 0.057992 6.323325627682127 1 2 18.96997688304638
pair_coeff 8 21 wf/cut 0.071523 6.319407907453407 1 2 18.95822372236022
pair_coeff 8 22 wf/cut 0.091476 5.437918514751647 1 2 16.313755544254942
pair_coeff 8 23 wf/cut 0.066853 6.414637503765215 1 2 19.243912511295648
pair_coeff 8 24 wf/cut 0.068499 6.027610728824833 1 2 18.082832186474498
pair_coeff 8 25 wf/cut 0.164070 6.50867097271995 1 2 19.52601291815985
pair_coeff 8 26 wf/cut 0.075100 5.723271374681476 1 2 17.16981412404443
pair_coeff 8 27 wf/cut 0.095204 6.002225923033709 1 2 18.006677769101127
pair_coeff 8 28 wf/cut 0.072560 6.179413824459994 1 2 18.538241473379983
pair_coeff 8 29 wf/cut 0.204571 6.455074051412765 1 2 19.365222154238296
pair_coeff 8 30 wf/cut 0.060170 6.155372367938502 1 2 18.466117103815506
pair_coeff 8 31 wf/cut 0.061662 6.321931368367982 1 2 18.965794105103946
pair_coeff 8 32 wf/cut 0.127711 6.228922014398231 1 2 18.686766043194694
pair_coeff 8 33 wf/cut 0.250295 6.620903112987423 1 2 19.86270933896227
pair_coeff 8 34 wf/cut 0.194931 6.403201712664134 1 2 19.2096051379924
pair_coeff 8 35 wf/cut 0.079230 5.795615810910755 1 2 17.386847432732267
pair_coeff 8 36 wf/cut 0.001379 6.257425310960982 1 2 18.772275932882945
pair_coeff 8 37 wf/cut 0.125511 6.051653861598323 1 2 18.154961584794968
pair_coeff 8 38 wf/cut 0.085288 5.993104375441103 1 2 17.97931312632331
pair_coeff 8 39 wf/cut 0.081983 5.951847773872721 1 2 17.855543321618164
pair_coeff 8 40 wf/cut 0.057992 6.323325627682127 1 2 18.96997688304638
pair_coeff 9 9 wf/cut 0.419186 6.733634028253079 1 2 20.20090208475924
pair_coeff 9 10 wf/cut 0.212382 6.423549039740656 1 2 19.270647119221966
pair_coeff 9 11 wf/cut 0.215092 6.590387900103195 1 2 19.771163700309586
pair_coeff 9 12 wf/cut 0.309817 6.50524897581083 1 2 19.51574692743249
pair_coeff 9 13 wf/cut 0.484741 6.900050363131952 1 2 20.700151089395856
pair_coeff 9 14 wf/cut 0.405414 6.6815889712242855 1 2 20.044766913672856
pair_coeff 9 15 wf/cut 0.240393 6.068280818635755 1 2 18.204842455907265
pair_coeff 9 16 wf/cut 0.393302 6.535691224609458 1 2 19.607073673828374
pair_coeff 9 17 wf/cut 0.306517 6.327982683666391 1 2 18.98394805099917
pair_coeff 9 18 wf/cut 0.248931 6.266295198960733 1 2 18.798885596882197
pair_coeff 9 19 wf/cut 0.244248 6.2246507773507185 1 2 18.673952332052156
pair_coeff 9 20 wf/cut 0.209790 6.5905505017289965 1 2 19.771651505186988
pair_coeff 9 21 wf/cut 0.223322 6.590180270116687 1 2 19.770540810350063
pair_coeff 9 22 wf/cut 0.243275 5.713450024075365 1 2 17.140350072226095
pair_coeff 9 23 wf/cut 0.218651 6.6841805825849985 1 2 20.052541747754994
pair_coeff 9 24 wf/cut 0.220298 6.298178954636986 1 2 18.894536863910957
pair_coeff 9 25 wf/cut 0.315868 6.786739795335731 1 2 20.360219386007195
pair_coeff 9 26 wf/cut 0.226898 5.99553560612189 1 2 17.98660681836567
pair_coeff 9 27 wf/cut 0.247003 6.276768673597067 1 2 18.8303060207912
pair_coeff 9 28 wf/cut 0.250031 6.454011505099358 1 2 19.362034515298074
pair_coeff 9 29 wf/cut 0.356369 6.734156486173098 1 2 20.202469458519293
pair_coeff 9 30 wf/cut 0.211968 6.4235779793345555 1 2 19.270733938003666
pair_coeff 9 31 wf/cut 0.213460 6.590431338464252 1 2 19.771294015392755
pair_coeff 9 32 wf/cut 0.279509 6.505661229041637 1 2 19.516983687124913
pair_coeff 9 33 wf/cut 0.402093 6.900589936537501 1 2 20.701769809612504
pair_coeff 9 34 wf/cut 0.346729 6.682106650582579 1 2 20.046319951747737
pair_coeff 9 35 wf/cut 0.231028 6.06846960743136 1 2 18.20540882229408
pair_coeff 9 36 wf/cut 0.338195 6.536191669581551 1 2 19.60857500874465
pair_coeff 9 37 wf/cut 0.277309 6.328383771538186 1 2 18.98515131461456
pair_coeff 9 38 wf/cut 0.237086 6.266521616565618 1 2 18.799564849696853
pair_coeff 9 39 wf/cut 0.233781 6.224860927463627 1 2 18.674582782390882
pair_coeff 9 40 wf/cut 0.209790 6.5905505017289965 1 2 19.771651505186988
pair_coeff 10 10 wf/cut 0.005578 6.265999286288815 1 2 18.797997858866445
pair_coeff 10 11 wf/cut 0.008288 6.390932891994093 1 2 19.17279867598228
pair_coeff 10 12 wf/cut 0.103013 6.199729734496916 1 2 18.59918920349075
pair_coeff 10 13 wf/cut 0.277937 6.589117480615403 1 2 19.76735244184621
pair_coeff 10 14 wf/cut 0.198610 6.371783619045257 1 2 19.11535085713577
pair_coeff 10 15 wf/cut 0.033589 5.781664862063682 1 2 17.344994586191046
pair_coeff 10 16 wf/cut 0.186498 6.226104236834126 1 2 18.67831271050238
pair_coeff 10 17 wf/cut 0.099713 6.022605657483588 1 2 18.067816972450764
pair_coeff 10 18 wf/cut 0.042127 5.974331431598945 1 2 17.922994294796837
pair_coeff 10 19 wf/cut 0.037444 5.935671447441882 1 2 17.807014342325644
pair_coeff 10 21 wf/cut 0.016518 6.336783382464571 1 2 19.010350147393712
pair_coeff 10 22 wf/cut 0.036471 5.418375566526451 1 2 16.255126699579353
pair_coeff 10 23 wf/cut 0.011847 6.452549354094189 1 2 19.357648062282568
pair_coeff 10 24 wf/cut 0.013494 6.0532242372044625 1 2 18.15967271161339
pair_coeff 10 25 wf/cut 0.109064 6.480992623201166 1 2 19.442977869603496
pair_coeff 10 26 wf/cut 0.020094 5.727883796640076 1 2 17.18365138992023
pair_coeff 10 27 wf/cut 0.040199 5.986137211233324 1 2 17.958411633699974
pair_coeff 10 28 wf/cut 0.043227 6.162354266488605 1 2 18.487062799465814
pair_coeff 10 29 wf/cut 0.149565 6.425899535640867 1 2 19.277698606922602
pair_coeff 10 30 wf/cut 0.005164 6.279450553510229 1 2 18.838351660530687
pair_coeff 10 31 wf/cut 0.006656 6.414806714205564 1 2 19.24442014261669
pair_coeff 10 32 wf/cut 0.072705 6.20424895331838 1 2 18.61274685995514
pair_coeff 10 33 wf/cut 0.195289 6.590957221363035 1 2 19.772871664089106
pair_coeff 10 34 wf/cut 0.139925 6.374256698313246 1 2 19.12277009493974
pair_coeff 10 35 wf/cut 0.024224 5.79281450588842 1 2 17.37844351766526
pair_coeff 10 36 wf/cut 0.131391 6.228661475252712 1 2 18.685984425758136
pair_coeff 10 37 wf/cut 0.070505 6.027117316392745 1 2 18.081351949178234
pair_coeff 10 38 wf/cut 0.030282 5.983977483837185 1 2 17.951932451511553
pair_coeff 10 39 wf/cut 0.026977 5.94607610198081 1 2 17.83822830594243
pair_coeff 11 11 wf/cut 0.010998 6.53407242179841 1 2 19.60221726539523
pair_coeff 11 12 wf/cut 0.105723 6.366490684329992 1 2 19.099472052989977
pair_coeff 11 13 wf/cut 0.280647 6.755935225417062 1 2 20.267805676251186
pair_coeff 11 14 wf/cut 0.201320 6.538603519887749 1 2 19.615810559663245
pair_coeff 11 15 wf/cut 0.036299 5.946968662780402 1 2 17.840905988341206
pair_coeff 11 16 wf/cut 0.189208 6.392942886970462 1 2 19.178828660911385
pair_coeff 11 17 wf/cut 0.102423 6.189364574070181 1 2 18.56809372221054
pair_coeff 11 18 wf/cut 0.044837 6.1402119935661545 1 2 18.420635980698464
pair_coeff 11 19 wf/cut 0.040154 6.101247830628814 1 2 18.30374349188644
pair_coeff 11 20 wf/cut 0.005696 6.607723261980873 1 2 19.823169785942618
pair_coeff 11 21 wf/cut 0.019228 6.496393035701747 1 2 19.48917910710524
pair_coeff 11 22 wf/cut 0.039181 5.584501642231329 1 2 16.753504926693985
pair_coeff 11 23 wf/cut 0.014557 6.60658239133453 1 2 19.819747174003588
pair_coeff 11 24 wf/cut 0.016204 6.210508609486856 1 2 18.631525828460568
pair_coeff 11 25 wf/cut 0.111774 6.647740379710509 1 2 19.943221139131527
pair_coeff 11 26 wf/cut 0.022804 5.890170182090268 1 2 17.670510546270805
pair_coeff 11 27 wf/cut 0.042909 6.151889183567281 1 2 18.455667550701843
pair_coeff 11 28 wf/cut 0.045937 6.3282208238107795 1 2 18.984662471432337
pair_coeff 11 29 wf/cut 0.152275 6.5927216895129135 1 2 19.77816506853874
pair_coeff 11 30 wf/cut 0.007874 6.397951767513159 1 2 19.193855302539475
pair_coeff 11 31 wf/cut 0.009366 6.548412328573101 1 2 19.645236985719304
pair_coeff 11 32 wf/cut 0.075415 6.370842118401069 1 2 19.112526355203208
pair_coeff 11 33 wf/cut 0.197999 6.75777413374384 1 2 20.27332240123152
pair_coeff 11 34 wf/cut 0.142635 6.541054552668633 1 2 19.623163658005897
pair_coeff 11 35 wf/cut 0.026934 5.956563720651988 1 2 17.869691161955963
pair_coeff 11 36 wf/cut 0.134101 6.395473237725452 1 2 19.186419713176356
pair_coeff 11 37 wf/cut 0.073215 6.193703302501737 1 2 18.58110990750521
pair_coeff 11 38 wf/cut 0.032992 6.148785435376327 1 2 18.446356306128983
pair_coeff 11 39 wf/cut 0.029687 6.110345071454451 1 2 18.331035214363354
pair_coeff 11 40 wf/cut 0.005696 6.607723261980873 1 2 19.823169785942618
pair_coeff 12 12 wf/cut 0.200448 6.277850874229409 1 2 18.833552622688227
pair_coeff 12 13 wf/cut 0.375372 6.671405311072043 1 2 20.01421593321613
pair_coeff 12 14 wf/cut 0.296045 6.4532756440329795 1 2 19.35982693209894
pair_coeff 12 15 wf/cut 0.131024 5.84255485528308 1 2 17.52766456584924
pair_coeff 12 16 wf/cut 0.283933 6.307431677259977 1 2 18.92229503177993
pair_coeff 12 17 wf/cut 0.197148 6.100591694847331 1 2 18.301775084541994
pair_coeff 12 18 wf/cut 0.139562 6.040345112977554 1 2 18.12103533893266
pair_coeff 12 19 wf/cut 0.134879 5.998852825433778 1 2 17.99655847630133
pair_coeff 12 20 wf/cut 0.100421 6.367152767929573 1 2 19.101458303788718
pair_coeff 12 21 wf/cut 0.113953 6.365699666568734 1 2 19.0970989997062
pair_coeff 12 22 wf/cut 0.133906 5.487109605448974 1 2 16.46132881634692
pair_coeff 12 23 wf/cut 0.109282 6.460110665288058 1 2 19.380331995864175
pair_coeff 12 24 wf/cut 0.110929 6.07371622854753 1 2 18.22114868564259
pair_coeff 12 25 wf/cut 0.206499 6.559327404195954 1 2 19.67798221258786
pair_coeff 12 26 wf/cut 0.117529 5.770434344200525 1 2 17.311303032601575
pair_coeff 12 27 wf/cut 0.137634 6.050878049577443 1 2 18.15263414873233
pair_coeff 12 28 wf/cut 0.140662 6.22811906216779 1 2 18.68435718650337
pair_coeff 12 29 wf/cut 0.247000 6.506235094735004 1 2 19.518705284205012
pair_coeff 12 30 wf/cut 0.102599 6.199847722340906 1 2 18.59954316702272
pair_coeff 12 31 wf/cut 0.104091 6.366663725733202 1 2 19.099991177199605
pair_coeff 12 32 wf/cut 0.170140 6.278875223812024 1 2 18.836625671436074
pair_coeff 12 33 wf/cut 0.292724 6.6723319742793255 1 2 20.016995922837978
pair_coeff 12 34 wf/cut 0.237360 6.454265231889239 1 2 19.362795695667717
pair_coeff 12 35 wf/cut 0.121659 5.8431832590102974 1 2 17.529549777030894
pair_coeff 12 36 wf/cut 0.228826 6.308421039847022 1 2 18.925263119541064
pair_coeff 12 37 wf/cut 0.167940 6.10158175427316 1 2 18.30474526281948
pair_coeff 12 38 wf/cut 0.127717 6.041063379946771 1 2 18.123190139840315
pair_coeff 12 39 wf/cut 0.124412 5.999536872422517 1 2 17.998610617267552
pair_coeff 12 40 wf/cut 0.100421 6.367152767929573 1 2 19.101458303788718
pair_coeff 13 13 wf/cut 0.550297 7.066547961746265 1 2 21.199643885238793
pair_coeff 13 14 wf/cut 0.470970 6.84798437757724 1 2 20.54395313273172
pair_coeff 13 15 wf/cut 0.305948 6.234139720557474 1 2 18.702419161672424
pair_coeff 13 16 wf/cut 0.458857 6.702091518082294 1 2 20.10627455424688
pair_coeff 13 17 wf/cut 0.372073 6.494164476750084 1 2 19.48249343025025
pair_coeff 13 18 wf/cut 0.314487 6.432174788842087 1 2 19.29652436652626
pair_coeff 13 19 wf/cut 0.309804 6.390531854157171 1 2 19.171595562471513
pair_coeff 13 20 wf/cut 0.275346 6.756032732095156 1 2 20.268098196285468
pair_coeff 13 21 wf/cut 0.288877 6.755817014102551 1 2 20.267451042307652
pair_coeff 13 22 wf/cut 0.308830 5.879425000161095 1 2 17.638275000483283
pair_coeff 13 23 wf/cut 0.284207 6.8497445004881925 1 2 20.549233501464578
pair_coeff 13 24 wf/cut 0.285853 6.4638463520895115 1 2 19.391539056268535
pair_coeff 13 25 wf/cut 0.381424 6.952910842994874 1 2 20.85873252898462
pair_coeff 13 26 wf/cut 0.292454 6.1613130283141055 1 2 18.483939084942318
pair_coeff 13 27 wf/cut 0.312558 6.442631932062835 1 2 19.327895796188507
pair_coeff 13 28 wf/cut 0.315587 6.619890395721167 1 2 19.8596711871635
pair_coeff 13 29 wf/cut 0.421925 6.900441239237516 1 2 20.701323717712548
pair_coeff 13 30 wf/cut 0.277524 6.589134834507833 1 2 19.7674045035235
pair_coeff 13 31 wf/cut 0.279016 6.755970194682537 1 2 20.267910584047613
pair_coeff 13 32 wf/cut 0.345065 6.671688068448729 1 2 20.015064205346185
pair_coeff 13 33 wf/cut 0.467649 7.066966231238362 1 2 21.200898693715086
pair_coeff 13 34 wf/cut 0.412285 6.848368288265007 1 2 20.54510486479502
pair_coeff 13 35 wf/cut 0.296584 6.23425905911194 1 2 18.70277717733582
pair_coeff 13 36 wf/cut 0.403751 6.702459807412386 1 2 20.10737942223716
pair_coeff 13 37 wf/cut 0.342865 6.494438889291505 1 2 19.483316667874515
pair_coeff 13 38 wf/cut 0.302642 6.4323262444775215 1 2 19.296978733432564
pair_coeff 13 39 wf/cut 0.299337 6.3906653903753785 1 2 19.171996171126136
pair_coeff 13 40 wf/cut 0.275346 6.756032732095156 1 2 20.268098196285468
pair_coeff 14 14 wf/cut 0.391642 6.629549396410893 1 2 19.88864818923268
pair_coeff 14 15 wf/cut 0.226621 6.016400811210637 1 2 18.049202433631912
pair_coeff 14 16 wf/cut 0.379530 6.483674128071082 1 2 19.451022384213246
pair_coeff 14 17 wf/cut 0.292745 6.276026354822916 1 2 18.828079064468746
pair_coeff 14 18 wf/cut 0.235159 6.2144055979415755 1 2 18.643216793824728
pair_coeff 14 19 wf/cut 0.230476 6.172787382997035 1 2 18.518362148991105
pair_coeff 14 20 wf/cut 0.196018 6.538787910119839 1 2 19.616363730359517
pair_coeff 14 21 wf/cut 0.209550 6.538369107168012 1 2 19.615107321504034
pair_coeff 14 22 wf/cut 0.229503 5.661533193978743 1 2 16.98459958193623
pair_coeff 14 23 wf/cut 0.204879 6.632390006238709 1 2 19.89717001871613
pair_coeff 14 24 wf/cut 0.206526 6.246381672050424 1 2 18.73914501615127
pair_coeff 14 25 wf/cut 0.302096 6.734778137463742 1 2 20.204334412391226
pair_coeff 14 26 wf/cut 0.213126 5.94370434405314 1 2 17.831113032159422
pair_coeff 14 27 wf/cut 0.233231 6.2248725061501835 1 2 18.67461751845055
pair_coeff 14 28 wf/cut 0.236259 6.402145618033878 1 2 19.206436854101636
pair_coeff 14 29 wf/cut 0.342598 6.6821466956694 1 2 20.0464400870082
pair_coeff 14 30 wf/cut 0.198196 6.3718164337361864 1 2 19.11544930120856
pair_coeff 14 31 wf/cut 0.199688 6.538652708676239 1 2 19.61595812602872
pair_coeff 14 32 wf/cut 0.265737 6.453725824442914 1 2 19.361177473328745
pair_coeff 14 33 wf/cut 0.388321 6.848555261309869 1 2 20.545665783929607
pair_coeff 14 34 wf/cut 0.332957 6.630097176272377 1 2 19.89029152881713
pair_coeff 14 35 wf/cut 0.217256 6.0166118728379825 1 2 18.049835618513946
pair_coeff 14 36 wf/cut 0.324423 6.484210545760694 1 2 19.45263163728208
pair_coeff 14 37 wf/cut 0.263537 6.276464594313065 1 2 18.829393782939196
pair_coeff 14 38 wf/cut 0.223314 6.2146578822218475 1 2 18.643973646665543
pair_coeff 14 39 wf/cut 0.220009 6.173021960210248 1 2 18.51906588063074
pair_coeff 14 40 wf/cut 0.196018 6.538787910119839 1 2 19.616363730359517
pair_coeff 15 15 wf/cut 0.061600 5.412669704115792 1 2 16.238009112347374
pair_coeff 15 16 wf/cut 0.214509 5.870633388669294 1 2 17.61190016600788
pair_coeff 15 17 wf/cut 0.127724 5.665328065098679 1 2 16.99598419529604
pair_coeff 15 18 wf/cut 0.070138 5.60931576883087 1 2 16.82794730649261
pair_coeff 15 19 wf/cut 0.065455 5.568478936337624 1 2 16.705436809012873
pair_coeff 15 20 wf/cut 0.030997 5.95253426830798 1 2 17.857602804923943
pair_coeff 15 21 wf/cut 0.044529 5.941730116730399 1 2 17.8251903501912
pair_coeff 15 22 wf/cut 0.064482 5.055066526249052 1 2 15.165199578747156
pair_coeff 15 23 wf/cut 0.039858 6.0388189375203165 1 2 18.116456812560948
pair_coeff 15 24 wf/cut 0.041505 5.650569731939204 1 2 16.951709195817614
pair_coeff 15 25 wf/cut 0.137075 6.123955851741878 1 2 18.371867555225634
pair_coeff 15 26 wf/cut 0.048105 5.343933138992498 1 2 16.031799416977496
pair_coeff 15 27 wf/cut 0.068210 5.620115241697351 1 2 16.860345725092053
pair_coeff 15 28 wf/cut 0.071238 5.79714638380999 1 2 17.39143915142997
pair_coeff 15 29 wf/cut 0.177576 6.069943102760143 1 2 18.20982930828043
pair_coeff 15 30 wf/cut 0.033175 5.7826589372196375 1 2 17.347976811658913
pair_coeff 15 31 wf/cut 0.034667 5.948302390882524 1 2 17.84490717264757
pair_coeff 15 32 wf/cut 0.100716 5.845003436795657 1 2 17.53501031038697
pair_coeff 15 33 wf/cut 0.223300 6.235536027214636 1 2 18.706608081643907
pair_coeff 15 34 wf/cut 0.167936 6.018117533790267 1 2 18.054352601370802
pair_coeff 15 35 wf/cut 0.052235 5.415473890209146 1 2 16.246421670627438
pair_coeff 15 36 wf/cut 0.159402 5.872398100194439 1 2 17.617194300583318
pair_coeff 15 37 wf/cut 0.098516 5.667732143982081 1 2 17.003196431946243
pair_coeff 15 38 wf/cut 0.058293 5.612162941341123 1 2 16.83648882402337
pair_coeff 15 39 wf/cut 0.054988 5.571364187563539 1 2 16.714092562690617
pair_coeff 15 40 wf/cut 0.030997 5.95253426830798 1 2 17.857602804923943
pair_coeff 16 16 wf/cut 0.027216 6.337782403912046 1 2 19.01334721173614
pair_coeff 16 17 wf/cut 0.280633 6.130180422228775 1 2 18.390541266686323
pair_coeff 16 18 wf/cut 0.223047 6.068649252074198 1 2 18.205947756222592
pair_coeff 16 19 wf/cut 0.218364 6.027019005823624 1 2 18.081057017470872
pair_coeff 16 20 wf/cut 0.183906 6.393147480752069 1 2 19.179442442256207
pair_coeff 16 21 wf/cut 0.197438 6.392683938124808 1 2 19.178051814374424
pair_coeff 16 22 wf/cut 0.217391 5.515750877499212 1 2 16.547252632497635
pair_coeff 16 23 wf/cut 0.192767 6.486724075272986 1 2 19.46017222581896
pair_coeff 16 24 wf/cut 0.194414 6.100672500483568 1 2 18.302017501450702
pair_coeff 16 25 wf/cut 0.289984 6.588935233441612 1 2 19.766805700324838
pair_coeff 16 26 wf/cut 0.201014 5.79796325726322 1 2 17.39388977178966
pair_coeff 16 27 wf/cut 0.221118 6.0791010484529915 1 2 18.237303145358975
pair_coeff 16 28 wf/cut 0.224147 6.256376087421608 1 2 18.769128262264825
pair_coeff 16 29 wf/cut 0.330485 6.536274979404401 1 2 19.608824938213203
pair_coeff 16 30 wf/cut 0.186084 6.226140636452508 1 2 18.678421909357525
pair_coeff 16 31 wf/cut 0.187576 6.392997387325535 1 2 19.178992161976602
pair_coeff 16 32 wf/cut 0.253625 6.307912958718467 1 2 18.9237388761554
pair_coeff 16 33 wf/cut 0.376209 6.702684222295407 1 2 20.10805266688622
pair_coeff 16 34 wf/cut 0.320845 6.484248553549719 1 2 19.452745660649157
pair_coeff 16 35 wf/cut 0.205144 5.870864049052838 1 2 17.612592147158516
pair_coeff 16 36 wf/cut 0.023134 6.338345846056568 1 2 19.015037538169704
pair_coeff 16 37 wf/cut 0.251425 6.130649043241044 1 2 18.391947129723132
pair_coeff 16 38 wf/cut 0.211202 6.0689241564117395 1 2 18.20677246923522
pair_coeff 16 39 wf/cut 0.207897 6.027275074473145 1 2 18.081825223419436
pair_coeff 16 40 wf/cut 0.183906 6.393147480752069 1 2 19.179442442256207
pair_coeff 17 17 wf/cut 0.193849 5.9233491242788805 1 2 17.770047372836643
pair_coeff 17 18 wf/cut 0.136263 5.8630821184928195 1 2 17.58924635547846
pair_coeff 17 19 wf/cut 0.131580 5.821644218417775 1 2 17.464932655253325
pair_coeff 17 20 wf/cut 0.097122 6.1899864646586105 1 2 18.569959393975832
pair_coeff 17 21 wf/cut 0.110653 6.188546099325202 1 2 18.565638297975607
pair_coeff 17 22 wf/cut 0.130606 5.30983190747035 1 2 15.929495722411051
pair_coeff 17 23 wf/cut 0.105983 6.282921319282791 1 2 18.848763957848373
pair_coeff 17 24 wf/cut 0.107629 5.896489952968157 1 2 17.68946985890447
pair_coeff 17 25 wf/cut 0.203200 6.382089400238762 1 2 19.146268200716285
pair_coeff 17 26 wf/cut 0.114230 5.59320394576633 1 2 16.77961183729899
pair_coeff 17 27 wf/cut 0.134334 5.873649240456693 1 2 17.62094772137008
pair_coeff 17 28 wf/cut 0.137363 6.050910374214647 1 2 18.152731122643942
pair_coeff 17 29 wf/cut 0.243701 6.328963417719822 1 2 18.986890253159466
pair_coeff 17 30 wf/cut 0.099300 6.022666584916778 1 2 18.067999754750335
pair_coeff 17 31 wf/cut 0.100792 6.189544117007458 1 2 18.568632351022373
pair_coeff 17 32 wf/cut 0.166841 6.101625831837799 1 2 18.304877495513395
pair_coeff 17 33 wf/cut 0.289424 6.495083547619462 1 2 19.485250642858386
pair_coeff 17 34 wf/cut 0.234061 6.277022750655092 1 2 18.831068251965277
pair_coeff 17 35 wf/cut 0.118359 5.665971807159278 1 2 16.997915421477835
pair_coeff 17 36 wf/cut 0.225527 6.131165252735328 1 2 18.393495758205983
pair_coeff 17 37 wf/cut 0.164641 5.924348407080925 1 2 17.773045221242775
pair_coeff 17 38 wf/cut 0.124417 5.863848431499796 1 2 17.591545294499387
pair_coeff 17 39 wf/cut 0.121113 5.822344488616284 1 2 17.46703346584885
pair_coeff 17 40 wf/cut 0.097122 6.1899864646586105 1 2 18.569959393975832
pair_coeff 18 18 wf/cut 0.078677 5.806155150598376 1 2 17.41846545179513
pair_coeff 18 19 wf/cut 0.073994 5.765149033334852 1 2 17.29544710000456
pair_coeff 18 20 wf/cut 0.039536 6.143860896897243 1 2 18.431582690691727
pair_coeff 18 21 wf/cut 0.053067 6.136530836242518 1 2 18.409592508727556
pair_coeff 18 22 wf/cut 0.073020 5.2521394224496145 1 2 15.756418267348844
pair_coeff 18 23 wf/cut 0.048396 6.232722071931244 1 2 18.698166215793734
pair_coeff 18 24 wf/cut 0.050043 5.845049472828402 1 2 17.535148418485207
pair_coeff 18 25 wf/cut 0.145613 6.3217567788528175 1 2 18.965270336558454
pair_coeff 18 26 wf/cut 0.056644 5.539473279208256 1 2 16.618419837624767
pair_coeff 18 27 wf/cut 0.076748 5.816985496228361 1 2 17.450956488685083
pair_coeff 18 28 wf/cut 0.079776 5.993977654615634 1 2 17.9819329638469
pair_coeff 18 29 wf/cut 0.186115 6.267859616819192 1 2 18.803578850457576
pair_coeff 18 30 wf/cut 0.041714 5.974983307333975 1 2 17.924949922001925
pair_coeff 18 31 wf/cut 0.043205 6.1411099770057245 1 2 18.42332993101717
pair_coeff 18 32 wf/cut 0.109254 6.042493928204347 1 2 18.12748178461304
pair_coeff 18 33 wf/cut 0.231838 6.433519247230287 1 2 19.300557741690863
pair_coeff 18 34 wf/cut 0.176474 6.216033392034327 1 2 18.648100176102982
pair_coeff 18 35 wf/cut 0.060773 5.611389850569513 1 2 16.834169551708538
pair_coeff 18 36 wf/cut 0.167940 6.070294170144763 1 2 18.21088251043429
pair_coeff 18 37 wf/cut 0.107055 5.865217375098184 1 2 17.595652125294553
pair_coeff 18 38 wf/cut 0.066831 5.808437279092397 1 2 17.425311837277192
pair_coeff 18 39 wf/cut 0.063527 5.767428643819603 1 2 17.302285931458808
pair_coeff 18 40 wf/cut 0.039536 6.143860896897243 1 2 18.431582690691727
pair_coeff 19 19 wf/cut 0.069311 5.724362787504792 1 2 17.173088362514378
pair_coeff 19 20 wf/cut 0.034853 6.10586575299424 1 2 18.31759725898272
pair_coeff 19 21 wf/cut 0.048384 6.0967512192398505 1 2 18.290253657719553
pair_coeff 19 22 wf/cut 0.068337 5.211108138159037 1 2 15.633324414477112
pair_coeff 19 23 wf/cut 0.043714 6.1934329156331 1 2 18.5802987468993
pair_coeff 19 24 wf/cut 0.045360 5.805442925019495 1 2 17.416328775058485
pair_coeff 19 25 wf/cut 0.140930 6.280274061428144 1 2 18.84082218428443
pair_coeff 19 26 wf/cut 0.051961 5.499319146540279 1 2 16.497957439620837
pair_coeff 19 27 wf/cut 0.072065 5.776024303801226 1 2 17.328072911403677
pair_coeff 19 28 wf/cut 0.075093 5.953096206763187 1 2 17.85928862028956
pair_coeff 19 29 wf/cut 0.181432 6.226290621468162 1 2 18.678871864404485
pair_coeff 19 30 wf/cut 0.037031 5.936496588820257 1 2 17.80948976646077
pair_coeff 19 31 wf/cut 0.038522 6.10236911417194 1 2 18.30710734251582
pair_coeff 19 32 wf/cut 0.104571 6.001202451726246 1 2 18.003607355178737
pair_coeff 19 33 wf/cut 0.227155 6.391918936768799 1 2 19.175756810306396
pair_coeff 19 34 wf/cut 0.171791 6.174477574070478 1 2 18.52343272221143
pair_coeff 19 35 wf/cut 0.056090 5.571011278043507 1 2 16.71303383413052
pair_coeff 19 36 wf/cut 0.163258 6.028753613252821 1 2 18.086260839758463
pair_coeff 19 37 wf/cut 0.102372 5.823949131867462 1 2 17.471847395602385
pair_coeff 19 38 wf/cut 0.062148 5.767856883865312 1 2 17.303570651595933
pair_coeff 19 39 wf/cut 0.058844 5.726983480603789 1 2 17.18095044181137
pair_coeff 19 40 wf/cut 0.034853 6.10586575299424 1 2 18.31759725898272
pair_coeff 20 21 wf/cut 0.013926 6.5199210046589675 1 2 19.5597630139769
pair_coeff 20 22 wf/cut 0.033879 5.587459907599181 1 2 16.76237972279754
pair_coeff 20 23 wf/cut 0.009256 6.649574443493311 1 2 19.948723330479933
pair_coeff 20 24 wf/cut 0.010902 6.242374503621665 1 2 18.727123510864995
pair_coeff 20 25 wf/cut 0.106472 6.648355967009086 1 2 19.945067901027258
pair_coeff 20 26 wf/cut 0.017503 5.903567074401621 1 2 17.71070122320486
pair_coeff 20 27 wf/cut 0.037607 6.155943831058615 1 2 18.467831493175847
pair_coeff 20 28 wf/cut 0.040635 6.331503643570952 1 2 18.994510930712856
pair_coeff 20 29 wf/cut 0.146974 6.593018960515583 1 2 19.77905688154675
pair_coeff 20 32 wf/cut 0.070113 6.372029116976672 1 2 19.116087350930016
pair_coeff 20 33 wf/cut 0.192697 6.757970683221281 1 2 20.273912049663842
pair_coeff 20 34 wf/cut 0.137333 6.5414250271565235 1 2 19.62427508146957
pair_coeff 20 35 wf/cut 0.021632 5.967018638311549 1 2 17.901055914934645
pair_coeff 20 36 wf/cut 0.128800 6.395882535691026 1 2 19.187647607073078
pair_coeff 20 37 wf/cut 0.067914 6.194931490620908 1 2 18.584794471862722
pair_coeff 20 38 wf/cut 0.027690 6.155796177211015 1 2 18.467388531633045
pair_coeff 20 39 wf/cut 0.024386 6.119051758363574 1 2 18.357155275090722
pair_coeff 21 21 wf/cut 0.027458 6.480069420606985 1 2 19.440208261820956
pair_coeff 21 22 wf/cut 0.047411 5.581642130693901 1 2 16.7449263920817
pair_coeff 21 23 wf/cut 0.022787 6.583002517343036 1 2 19.74900755202911
pair_coeff 21 24 wf/cut 0.024433 6.191552500203247 1 2 18.574657500609742
pair_coeff 21 25 wf/cut 0.120004 6.646999738911693 1 2 19.94099921673508
pair_coeff 21 26 wf/cut 0.031034 5.878598106878971 1 2 17.63579432063691
pair_coeff 21 27 wf/cut 0.051138 6.1478586796466335 1 2 18.443576038939902
pair_coeff 21 28 wf/cut 0.054167 6.324516380690015 1 2 18.973549142070045
pair_coeff 21 29 wf/cut 0.160505 6.592313711480712 1 2 19.776941134442136
pair_coeff 21 30 wf/cut 0.016104 6.340969704607503 1 2 19.02290911382251
pair_coeff 21 31 wf/cut 0.017596 6.5013402123206046 1 2 19.504020636961812
pair_coeff 21 32 wf/cut 0.083645 6.369348945541728 1 2 19.108046836625185
pair_coeff 21 33 wf/cut 0.206229 6.757540572332879 1 2 20.27262171699864
pair_coeff 21 34 wf/cut 0.150865 6.540596793679068 1 2 19.621790381037204
pair_coeff 21 35 wf/cut 0.035164 5.947844531230358 1 2 17.843533593691074
pair_coeff 21 36 wf/cut 0.142331 6.39500222582037 1 2 19.18500667746111
pair_coeff 21 37 wf/cut 0.081445 6.192166186380409 1 2 18.57649855914123
pair_coeff 21 38 wf/cut 0.041222 6.142414836822247 1 2 18.42724451046674
pair_coeff 21 39 wf/cut 0.037917 6.102763659737872 1 2 18.308290979213616
pair_coeff 21 40 wf/cut 0.013926 6.5199210046589675 1 2 19.5597630139769
pair_coeff 22 22 wf/cut 0.067364 4.698227190160832 1 2 14.094681570482496
pair_coeff 22 23 wf/cut 0.042740 5.6772849911904 1 2 17.0318549735712
pair_coeff 22 24 wf/cut 0.044387 5.289807269665101 1 2 15.869421808995302
pair_coeff 22 25 wf/cut 0.139957 5.768554114508845 1 2 17.305662343526535
pair_coeff 22 26 wf/cut 0.050987 4.984686027270456 1 2 14.954058081811368
pair_coeff 22 27 wf/cut 0.071091 5.262912382415455 1 2 15.788737147246366
pair_coeff 22 28 wf/cut 0.074120 5.439975772862831 1 2 16.319927318588494
pair_coeff 22 29 wf/cut 0.180458 5.714850862757114 1 2 17.144552588271342
pair_coeff 22 30 wf/cut 0.036057 5.418902704026212 1 2 16.256708112078634
pair_coeff 22 31 wf/cut 0.037549 5.585489758070483 1 2 16.756469274211447
pair_coeff 22 32 wf/cut 0.103598 5.489037080971375 1 2 16.467111242914125
pair_coeff 22 33 wf/cut 0.226182 5.8806376350894025 1 2 17.641912905268207
pair_coeff 22 34 wf/cut 0.170818 5.662987686021554 1 2 16.988963058064662
pair_coeff 22 35 wf/cut 0.055117 5.056931123036382 1 2 15.170793369109145
pair_coeff 22 36 wf/cut 0.162284 5.517215784587296 1 2 16.551647353761886
pair_coeff 22 37 wf/cut 0.101398 5.311696859115723 1 2 15.935090577347168
pair_coeff 22 38 wf/cut 0.061175 5.254183030641423 1 2 15.762549091924269
pair_coeff 22 39 wf/cut 0.057870 5.213062357159386 1 2 15.639187071478158
pair_coeff 22 40 wf/cut 0.033879 5.587459907599181 1 2 16.76237972279754
pair_coeff 23 23 wf/cut 0.013420 6.688853536606121 1 2 20.066560609818364
pair_coeff 23 24 wf/cut 0.019763 6.29527868599085 1 2 18.885836057972547
pair_coeff 23 25 wf/cut 0.085206 6.741392723436803 1 2 20.22417817031041
pair_coeff 23 26 wf/cut 0.026364 5.978305270632397 1 2 17.93491581189719
pair_coeff 23 27 wf/cut 0.000342 6.244253298502354 1 2 18.732759895507062
pair_coeff 23 28 wf/cut 0.000366 6.4204818546224995 1 2 19.261445563867497
pair_coeff 23 29 wf/cut 0.071890 6.686432938070228 1 2 20.059298814210685
pair_coeff 23 30 wf/cut 0.011434 6.460111302128625 1 2 19.380333906385875
pair_coeff 23 31 wf/cut 0.012925 6.617996254538358 1 2 19.853988763615074
pair_coeff 23 32 wf/cut 0.078974 6.4641118645001 1 2 19.3923355935003
pair_coeff 23 33 wf/cut 0.073358 6.85155566549562 1 2 20.55466699648686
pair_coeff 23 34 wf/cut 0.080693 6.634779187210656 1 2 19.90433756163197
pair_coeff 23 35 wf/cut 0.030493 6.046847416569171 1 2 18.14054224970751
pair_coeff 23 36 wf/cut 0.061166 6.489185414364156 1 2 19.467556243092467
pair_coeff 23 37 wf/cut 0.076775 6.2869559403051 1 2 18.860867820915303
pair_coeff 23 38 wf/cut 0.036551 6.240136548485556 1 2 18.72040964545667
pair_coeff 23 39 wf/cut 0.033247 6.2011686854634664 1 2 18.6035060563904
pair_coeff 23 40 wf/cut 0.009256 6.649574443493311 1 2 19.948723330479933
pair_coeff 24 24 wf/cut 0.021409 5.902825373061459 1 2 17.708476119184375
pair_coeff 24 25 wf/cut 0.116980 6.355020618222843 1 2 19.065061854668528
pair_coeff 24 26 wf/cut 0.028010 5.588184701124206 1 2 16.764554103372618
pair_coeff 24 27 wf/cut 0.048114 5.856453272809193 1 2 17.56935981842758
pair_coeff 24 28 wf/cut 0.051143 6.03282984385001 1 2 18.09848953155003
pair_coeff 24 29 wf/cut 0.157481 6.300272873273843 1 2 18.90081861982153
pair_coeff 24 30 wf/cut 0.013080 6.05885560137348 1 2 18.17656680412044
pair_coeff 24 31 wf/cut 0.014572 6.219293562690735 1 2 18.657880688072204
pair_coeff 24 32 wf/cut 0.080621 6.077365593674358 1 2 18.232096781023074
pair_coeff 24 33 wf/cut 0.203205 6.465539023765016 1 2 19.396617071295047
pair_coeff 24 34 wf/cut 0.147841 6.248599086448351 1 2 18.745797259345053
pair_coeff 24 35 wf/cut 0.032140 5.6574738585901345 1 2 16.972421575770404
pair_coeff 24 36 wf/cut 0.139307 6.102951668547555 1 2 18.308855005642666
pair_coeff 24 37 wf/cut 0.078421 5.900160965208208 1 2 17.700482895624624
pair_coeff 24 38 wf/cut 0.038198 5.85153222065546 1 2 17.55459666196638
pair_coeff 24 39 wf/cut 0.034893 5.812153931855011 1 2 17.436461795565034
pair_coeff 24 40 wf/cut 0.010902 6.242374503621665 1 2 18.727123510864995
pair_coeff 25 25 wf/cut 0.062978 6.840818860381698 1 2 20.522456581145093
pair_coeff 25 26 wf/cut 0.123581 6.051811079871612 1 2 18.155433239614837
pair_coeff 25 27 wf/cut 0.001064 6.332285213812248 1 2 18.996855641436742
pair_coeff 25 28 wf/cut 0.001085 6.509542326637676 1 2 19.528626979913028
pair_coeff 25 29 wf/cut 0.425474 6.7877218996841355 1 2 20.363165699052406
pair_coeff 25 30 wf/cut 0.108651 6.481102402445426 1 2 19.44330720733628
pair_coeff 25 31 wf/cut 0.110142 6.647901648052044 1 2 19.94370494415613
pair_coeff 25 32 wf/cut 0.176191 6.560327886240045 1 2 19.680983658720134
pair_coeff 25 33 wf/cut 0.484160 6.953839371357665 1 2 20.861518114072993
pair_coeff 25 34 wf/cut 0.381459 6.735769622233203 1 2 20.20730886669961
pair_coeff 25 35 wf/cut 0.127710 6.1245540687340725 1 2 18.37366220620222
pair_coeff 25 36 wf/cut 0.086889 6.589926019306955 1 2 19.769778057920867
pair_coeff 25 37 wf/cut 0.173991 6.38305646617526 1 2 19.14916939852578
pair_coeff 25 38 wf/cut 0.133768 6.322442926130092 1 2 18.967328778390275
pair_coeff 25 39 wf/cut 0.130463 6.280926022691235 1 2 18.842778068073706
pair_coeff 25 40 wf/cut 0.106472 6.648355967009086 1 2 19.945067901027258
pair_coeff 26 26 wf/cut 0.034611 5.278051554722805 1 2 15.834154664168416
pair_coeff 26 27 wf/cut 0.054715 5.550632394717641 1 2 16.651897184152922
pair_coeff 26 28 wf/cut 0.057743 5.727313013729271 1 2 17.18193904118781
pair_coeff 26 29 wf/cut 0.164082 5.997401234701861 1 2 17.99220370410558
pair_coeff 26 30 wf/cut 0.019681 5.729200436106479 1 2 17.187601308319437
pair_coeff 26 31 wf/cut 0.021172 5.893502125092778 1 2 17.680506375278334
pair_coeff 26 32 wf/cut 0.087222 5.77355467816977 1 2 17.32066403450931
pair_coeff 26 33 wf/cut 0.209805 6.162846524069043 1 2 18.48853957220713
pair_coeff 26 34 wf/cut 0.154442 5.945670315140756 1 2 17.837010945422268
pair_coeff 26 35 wf/cut 0.038740 5.3486854588231765 1 2 16.04605637646953
pair_coeff 26 36 wf/cut 0.145908 5.799973083941243 1 2 17.39991925182373
pair_coeff 26 37 wf/cut 0.085022 5.596251927245512 1 2 16.788755781736537
pair_coeff 26 38 wf/cut 0.044798 5.544164768287125 1 2 16.632494304861375
pair_coeff 26 39 wf/cut 0.041494 5.504054682438701 1 2 16.512164047316105
pair_coeff 26 40 wf/cut 0.017503 5.903567074401621 1 2 17.71070122320486
pair_coeff 27 27 wf/cut 0.055422 5.8277356350076115 1 2 17.483206905022833
pair_coeff 27 28 wf/cut 0.057461 6.0048083393750415 1 2 18.014425018125124
pair_coeff 27 29 wf/cut 0.184186 6.278368151196274 1 2 18.83510445358882
pair_coeff 27 30 wf/cut 0.039785 5.986861716352022 1 2 17.960585149056065
pair_coeff 27 31 wf/cut 0.041277 6.152881477214971 1 2 18.458644431644913
pair_coeff 27 32 wf/cut 0.107326 6.053140955180234 1 2 18.159422865540705
pair_coeff 27 33 wf/cut 0.229910 6.444000765960297 1 2 19.33200229788089
pair_coeff 27 34 wf/cut 0.174546 6.226529663564308 1 2 18.679588990692924
pair_coeff 27 35 wf/cut 0.058845 5.622457081906772 1 2 16.867371245720314
pair_coeff 27 36 wf/cut 0.001228 6.080799532766481 1 2 18.242398598299445
pair_coeff 27 37 wf/cut 0.105126 5.875867449320084 1 2 17.627602347960252
pair_coeff 27 38 wf/cut 0.064903 5.819413545043322 1 2 17.458240635129968
pair_coeff 27 39 wf/cut 0.061598 5.778457730344957 1 2 17.335373191034872
pair_coeff 27 40 wf/cut 0.037607 6.155943831058615 1 2 18.467831493175847
pair_coeff 28 28 wf/cut 0.059908 6.1818125994432265 1 2 18.54543779832968
pair_coeff 28 29 wf/cut 0.187215 6.4556028384801145 1 2 19.366808515440344
pair_coeff 28 30 wf/cut 0.042814 6.162677260323304 1 2 18.488031780969912
pair_coeff 28 31 wf/cut 0.044305 6.329122536684595 1 2 18.987367610053788
pair_coeff 28 32 wf/cut 0.110354 6.230341958421634 1 2 18.691025875264902
pair_coeff 28 33 wf/cut 0.232938 6.621259842822526 1 2 19.863779528467578
pair_coeff 28 34 wf/cut 0.177574 6.403800703379438 1 2 19.211402110138312
pair_coeff 28 35 wf/cut 0.061873 5.7993639894571976 1 2 17.39809196837159
pair_coeff 28 36 wf/cut 0.001252 6.258048801889918 1 2 18.774146405669754
pair_coeff 28 37 wf/cut 0.108154 6.053088642675554 1 2 18.159265928026663
pair_coeff 28 38 wf/cut 0.067931 5.9963870692049515 1 2 17.989161207614856
pair_coeff 28 39 wf/cut 0.064626 5.955407688864699 1 2 17.866223066594095
pair_coeff 28 40 wf/cut 0.040635 6.331503643570952 1 2 18.994510930712856
pair_coeff 29 29 wf/cut 0.293553 6.734901221669089 1 2 20.204703665007266
pair_coeff 29 30 wf/cut 0.149152 6.425928662140226 1 2 19.277785986420678
pair_coeff 29 31 wf/cut 0.150644 6.592808608254519 1 2 19.77842582476356
pair_coeff 29 32 wf/cut 0.216693 6.5069139355650485 1 2 19.520741806695145
pair_coeff 29 33 wf/cut 0.339277 6.901174934210456 1 2 20.703524802631367
pair_coeff 29 34 wf/cut 0.283913 6.682893550119813 1 2 20.048680650359437
pair_coeff 29 35 wf/cut 0.168212 6.070294170144763 1 2 18.21088251043429
pair_coeff 29 36 wf/cut 0.275379 6.53700493974828 1 2 19.61101481924484
pair_coeff 29 37 wf/cut 0.214493 6.329613164394258 1 2 18.988839493182773
pair_coeff 29 38 wf/cut 0.174270 6.268290266697097 1 2 18.80487080009129
pair_coeff 29 39 wf/cut 0.170965 6.226677571408917 1 2 18.68003271422675
pair_coeff 29 40 wf/cut 0.146974 6.593018960515583 1 2 19.77905688154675
pair_coeff 30 31 wf/cut 0.006243 6.436867325811939 1 2 19.310601977435816
pair_coeff 30 32 wf/cut 0.072292 6.2043654791136875 1 2 18.613096437341063
pair_coeff 30 33 wf/cut 0.194875 6.590992227279316 1 2 19.77297668183795
pair_coeff 30 34 wf/cut 0.139512 6.374322689731052 1 2 19.122968069193156
pair_coeff 30 35 wf/cut 0.023810 5.794680761693587 1 2 17.38404228508076
pair_coeff 30 36 wf/cut 0.130978 6.228734363673756 1 2 18.68620309102127
pair_coeff 30 37 wf/cut 0.070092 6.027237821338098 1 2 18.081713464014296
pair_coeff 30 38 wf/cut 0.029868 5.985230649978958 1 2 17.955691949936874
pair_coeff 30 39 wf/cut 0.026564 5.947631895281645 1 2 17.842895685844933
pair_coeff 31 31 wf/cut 0.007734 6.567831037515117 1 2 19.703493112545353
pair_coeff 31 32 wf/cut 0.073783 6.371180012524027 1 2 19.11354003757208
pair_coeff 31 33 wf/cut 0.196367 6.757844212311977 1 2 20.273532636935933
pair_coeff 31 34 wf/cut 0.141003 6.541152469250684 1 2 19.623457407752053
pair_coeff 31 35 wf/cut 0.025302 5.958948966149641 1 2 17.87684689844892
pair_coeff 31 36 wf/cut 0.132469 6.395617784448214 1 2 19.18685335334464
pair_coeff 31 37 wf/cut 0.071583 6.194052355515639 1 2 18.58215706654692
pair_coeff 31 38 wf/cut 0.031360 6.150442231391871 1 2 18.451326694175613
pair_coeff 31 39 wf/cut 0.028055 6.1123674095484715 1 2 18.337102228645414
pair_coeff 32 32 wf/cut 0.139832 6.280338147956703 1 2 18.841014443870108
pair_coeff 32 33 wf/cut 0.262416 6.672807379130834 1 2 20.018422137392502
pair_coeff 32 34 wf/cut 0.207052 6.454996866244807 1 2 19.364990598734423
pair_coeff 32 35 wf/cut 0.091351 5.846082838683163 1 2 17.53824851604949
pair_coeff 32 36 wf/cut 0.198518 6.309181376440496 1 2 18.92754412932149
pair_coeff 32 37 wf/cut 0.137633 6.103047888395006 1 2 18.30914366518502
pair_coeff 32 38 wf/cut 0.097409 6.043739153604026 1 2 18.131217460812078
pair_coeff 32 39 wf/cut 0.094104 6.002359484884067 1 2 18.007078454652202
pair_coeff 32 40 wf/cut 0.070113 6.372029116976672 1 2 19.116087350930016
pair_coeff 33 33 wf/cut 0.385000 7.067563273437359 1 2 21.202689820312077
pair_coeff 33 34 wf/cut 0.329636 6.849136659067028 1 2 20.547409977201085
pair_coeff 33 35 wf/cut 0.213935 6.235761878631987 1 2 18.70728563589596
pair_coeff 33 36 wf/cut 0.321102 6.703247958074066 1 2 20.109743874222197
pair_coeff 33 37 wf/cut 0.260216 6.49554680247315 1 2 19.48664040741945
pair_coeff 33 38 wf/cut 0.219993 6.433800819712532 1 2 19.3014024591376
pair_coeff 33 39 wf/cut 0.216688 6.3921696304391835 1 2 19.17650889131755
pair_coeff 33 40 wf/cut 0.192697 6.757970683221281 1 2 20.273912049663842
pair_coeff 34 34 wf/cut 0.274272 6.630885251270346 1 2 19.892655753811038
pair_coeff 34 35 wf/cut 0.158571 6.018506537122348 1 2 18.055519611367043
pair_coeff 34 36 wf/cut 0.265738 6.485029527646095 1 2 19.455088582938284
pair_coeff 34 37 wf/cut 0.204852 6.27772691468288 1 2 18.83318074404864
pair_coeff 34 38 wf/cut 0.164629 6.216488307385695 1 2 18.649464922157083
pair_coeff 34 39 wf/cut 0.161324 6.17490549231641 1 2 18.52471647694923
pair_coeff 34 40 wf/cut 0.137333 6.5414250271565235 1 2 19.62427508146957
pair_coeff 35 35 wf/cut 0.042870 5.4194558891562785 1 2 16.258367667468836
pair_coeff 35 36 wf/cut 0.150037 5.8728226163551005 1 2 17.6184678490653
pair_coeff 35 37 wf/cut 0.089151 5.6688305293155095 1 2 17.006491587946527
pair_coeff 35 38 wf/cut 0.048928 5.615420402551611 1 2 16.846261207654834
pair_coeff 35 39 wf/cut 0.045623 5.575027083025114 1 2 16.725081249075345
pair_coeff 35 40 wf/cut 0.021632 5.967018638311549 1 2 17.901055914934645
pair_coeff 36 36 wf/cut 0.019052 6.339149093005715 1 2 19.017447279017144
pair_coeff 36 37 wf/cut 0.196319 6.131909094415353 1 2 18.39572728324606
pair_coeff 36 38 wf/cut 0.156095 6.07081046198845 1 2 18.21243138596535
pair_coeff 36 39 wf/cut 0.152791 6.029219810679759 1 2 18.087659432039278
pair_coeff 36 40 wf/cut 0.128800 6.395882535691026 1 2 19.187647607073078
pair_coeff 37 37 wf/cut 0.135433 5.925773208988131 1 2 17.777319626964392
pair_coeff 37 38 wf/cut 0.095209 5.866481553533799 1 2 17.599444660601396
pair_coeff 37 39 wf/cut 0.091905 5.82512551794993 1 2 17.47537655384979
pair_coeff 37 40 wf/cut 0.067914 6.194931490620908 1 2 18.584794471862722
pair_coeff 38 38 wf/cut 0.054986 5.811826808320624 1 2 17.43548042496187
pair_coeff 38 39 wf/cut 0.051681 5.771184604473262 1 2 17.313553813419787
pair_coeff 38 40 wf/cut 0.027690 6.155796177211015 1 2 18.467388531633045
pair_coeff 39 39 wf/cut 0.048377 5.730699270006254 1 2 17.192097810018762
pair_coeff 39 40 wf/cut 0.024386 6.119051758363574 1 2 18.357155275090722
pair_coeff 40 40 wf/cut 0.000395 6.921680089176746 1 11 20.76504026753024
pair_coeff 20 40 wf/cut 0.000395 6.921680089176746 1 11 20.76504026753024
pair_coeff 20 20 wf/cut 0.000395 6.921680089176746 1 11 20.76504026753024
pair_coeff 10 20 wf/cut 0.002986 6.718011650959061 1 4 20.154034952877183
pair_coeff 10 40 wf/cut 0.002986 6.718011650959061 1 4 20.154034952877183
pair_coeff 20 30 wf/cut 0.002573 6.745752996427961 1 4 20.237258989283884
pair_coeff 20 31 wf/cut 0.004064 6.883184689300606 1 4 20.649554067901818
pair_coeff 30 40 wf/cut 0.002573 6.745752996427961 1 4 20.237258989283884
pair_coeff 31 40 wf/cut 0.004064 6.883184689300606 1 4 20.649554067901818
pair_coeff 3 3 coul/debye 35.
pair_coeff 3 5 coul/debye 35.
pair_coeff 3 7 coul/debye 35.
pair_coeff 3 8 coul/debye 35.
pair_coeff 3 16 coul/debye 35.
pair_coeff 3 23 coul/debye 35.
pair_coeff 3 25 coul/debye 35.
pair_coeff 3 36 coul/debye 35.
pair_coeff 5 5 coul/debye 35.
pair_coeff 5 7 coul/debye 35.
pair_coeff 5 8 coul/debye 35.
pair_coeff 5 16 coul/debye 35.
pair_coeff 5 23 coul/debye 35.
pair_coeff 5 25 coul/debye 35.
pair_coeff 5 27 coul/debye 35.
pair_coeff 5 28 coul/debye 35.
pair_coeff 5 36 coul/debye 35.
pair_coeff 7 7 coul/debye 35.
pair_coeff 7 8 coul/debye 35.
pair_coeff 7 16 coul/debye 35.
pair_coeff 7 23 coul/debye 35.
pair_coeff 7 25 coul/debye 35.
pair_coeff 7 27 coul/debye 35.
pair_coeff 7 28 coul/debye 35.
pair_coeff 7 36 coul/debye 35.
pair_coeff 8 8 coul/debye 35.
pair_coeff 8 16 coul/debye 35.
pair_coeff 8 23 coul/debye 35.
pair_coeff 8 25 coul/debye 35.
pair_coeff 8 27 coul/debye 35.
pair_coeff 8 28 coul/debye 35.
pair_coeff 8 36 coul/debye 35.
pair_coeff 16 16 coul/debye 35.
pair_coeff 16 23 coul/debye 35.
pair_coeff 16 25 coul/debye 35.
pair_coeff 16 27 coul/debye 35.
pair_coeff 16 28 coul/debye 35.
pair_coeff 16 36 coul/debye 35.
pair_coeff 23 23 coul/debye 35.
pair_coeff 23 25 coul/debye 35.
pair_coeff 23 36 coul/debye 35.
pair_coeff 25 25 coul/debye 35.
pair_coeff 25 27 coul/debye 35.
pair_coeff 25 28 coul/debye 35.
pair_coeff 25 36 coul/debye 35.
pair_coeff 27 27 coul/debye 35.
pair_coeff 27 28 coul/debye 35.
pair_coeff 27 36 coul/debye 35.
pair_coeff 28 28 coul/debye 35.
pair_coeff 28 36 coul/debye 35.
pair_coeff 36 36 coul/debye 35.
pair_coeff 3 27 coul/debye 35.
pair_coeff 3 28 coul/debye 35.
pair_coeff 23 27 coul/debye 35.
pair_coeff 23 28 coul/debye 35.

special_bonds fene
Finding 1-2 1-3 1-4 neighbors ...
  special bond factors lj:    0        1        1       
  special bond factors coul:  0        1        1       
     2 = max # of 1-2 neighbors
     6 = max # of special neighbors
  special bonds CPU = 0.000 seconds
neighbor  3.5 multi
neigh_modify  every 10 delay 0

comm_style    tiled

timer timeout 35:50:00
New timer settings: style=normal  mode=nosync  timeout=11:50:00

velocity      all create $T 494211
velocity      all create 365 494211
fix           fxnve   all nve
fix           fxlange all langevin $T $T 40000.0 32784
fix           fxlange all langevin 365 $T 40000.0 32784
fix           fxlange all langevin 365 365 40000.0 32784

dump          1 all custom 100000 $d-$T.xyz id mol type q xu yu zu
dump          1 all custom 100000 TIA_WT-$T.xyz id mol type q xu yu zu
dump          1 all custom 100000 TIA_WT-365.xyz id mol type q xu yu zu
dump_modify   1 sort id

#compute       rad all gyration
#compute       dis all pair/local dist
#compute       maximo all reduce max c_dis
#compute       mean all reduce ave c_dis

thermo        1000000
thermo_style  custom step pe temp  press ke lx ly lz pzz  spcpu density
thermo_modify flush yes

restart      10000000 restart$T
restart      10000000 restart365

####Minimization

timestep 0.01
run 2000
Neighbor list info ...
  update every 10 steps, delay 0 steps, check yes
  max neighbors/atom: 2000, page size: 100000
  master list distance cutoff = 38.5
  ghost atom cutoff = 38.5
  binsize = 8.7926654, bins = 35 35 35
  2 neighbor lists, perpetual/occasional/extra = 2 0 0
  (1) pair wf/cut, perpetual
      attributes: half, newton on
      pair build: half/multi/newton
      stencil: half/multi/3d/newton
      bin: standard
  (2) pair coul/debye, perpetual, skip from (1)
      attributes: half, newton on
      pair build: skip
      stencil: none
      bin: none
Per MPI rank memory allocation (min/avg/max) = 8.891 | 8.953 | 9.133 Mbytes
Step PotEng Temp Press KinEng Lx Ly Lz Pzz S/CPU Density 
       0   -13.356653          365   0.43540388    104.44758          300          300          300   0.31664189            0 0.00066940445 
    2000   -11.197172    357.56547   0.41528343    102.32013          300          300          300   0.31519136     40940.01 0.00066940445 
Loop time of 0.0488687 on 6 procs for 2000 steps with 97 atoms

Performance: 35.360 ns/day, 0.679 hours/ns, 40926.028 timesteps/s
99.8% CPU use with 6 MPI tasks x no OpenMP threads

MPI task timing breakdown:
Section |  min time  |  avg time  |  max time  |%varavg| %total
---------------------------------------------------------------
Pair    | 0.0005641  | 0.0033999  | 0.017146   |  10.5 |  6.96
Bond    | 7.7486e-05 | 0.00043078 | 0.0020816  |   0.0 |  0.88
Neigh   | 0          | 0          | 0          |   0.0 |  0.00
Comm    | 0.017993   | 0.039738   | 0.044967   |   4.9 | 81.32
Output  | 2.5988e-05 | 3.2465e-05 | 4.1008e-05 |   0.0 |  0.07
Modify  | 0.00026679 | 0.0020603  | 0.01052    |   8.3 |  4.22
Other   |            | 0.003207   |            |       |  6.56

Nlocal:        16.1667 ave          96 max           0 min
Histogram: 5 0 0 0 0 0 0 0 0 1
Nghost:        39.5000 ave          57 max           0 min
Histogram: 1 0 0 0 1 0 0 0 1 3
Neighs:        73.5000 ave         436 max           0 min
Histogram: 5 0 0 0 0 0 0 0 0 1

Total # of neighbors = 441
Ave neighs/atom = 4.5463918
Ave special neighs/atom = 1.9793814
Neighbor list builds = 0
Dangerous builds = 0

timestep 0.1
run 2000
Per MPI rank memory allocation (min/avg/max) = 8.891 | 8.953 | 9.133 Mbytes
Step PotEng Temp Press KinEng Lx Ly Lz Pzz S/CPU Density 
    2000   -11.197172    357.56547   0.41528343    102.32013          300          300          300   0.31519136            0 0.00066940445 
    4000    6.0286304    300.89406    -0.179823    86.103173          300          300          300  -0.12285158    41159.164 0.00066940445 
Loop time of 0.0486024 on 6 procs for 2000 steps with 97 atoms

Performance: 355.538 ns/day, 0.068 hours/ns, 41150.213 timesteps/s
99.8% CPU use with 6 MPI tasks x no OpenMP threads

MPI task timing breakdown:
Section |  min time  |  avg time  |  max time  |%varavg| %total
---------------------------------------------------------------
Pair    | 0.00058889 | 0.0033912  | 0.017097   |  10.5 |  6.98
Bond    | 7.9632e-05 | 0.00043555 | 0.0021176  |   0.0 |  0.90
Neigh   | 0          | 0          | 0          |   0.0 |  0.00
Comm    | 0.017711   | 0.039503   | 0.044691   |   4.9 | 81.28
Output  | 2.3127e-05 | 2.865e-05  | 3.3855e-05 |   0.0 |  0.06
Modify  | 0.00027204 | 0.002049   | 0.010488   |   8.3 |  4.22
Other   |            | 0.003195   |            |       |  6.57

Nlocal:        16.1667 ave          96 max           0 min
Histogram: 5 0 0 0 0 0 0 0 0 1
Nghost:        39.5000 ave          57 max           0 min
Histogram: 1 0 0 0 1 0 0 0 1 3
Neighs:        73.5000 ave         436 max           0 min
Histogram: 5 0 0 0 0 0 0 0 0 1

Total # of neighbors = 441
Ave neighs/atom = 4.5463918
Ave special neighs/atom = 1.9793814
Neighbor list builds = 0
Dangerous builds = 0

timestep 1
run 2000
Per MPI rank memory allocation (min/avg/max) = 8.891 | 8.953 | 9.133 Mbytes
Step PotEng Temp Press KinEng Lx Ly Lz Pzz S/CPU Density 
    4000    6.0286304    300.89406    -0.179823    86.103173          300          300          300  -0.12285158            0 0.00066940445 
    6000    13.595472    284.04175 -0.077831394    81.280751          300          300          300  0.050417723    40894.704 0.00066940445 
Loop time of 0.0489211 on 6 procs for 2000 steps with 97 atoms

Performance: 3532.218 ns/day, 0.007 hours/ns, 40882.148 timesteps/s
99.8% CPU use with 6 MPI tasks x no OpenMP threads

MPI task timing breakdown:
Section |  min time  |  avg time  |  max time  |%varavg| %total
---------------------------------------------------------------
Pair    | 0.00057793 | 0.0033395  | 0.016678   |  10.3 |  6.83
Bond    | 8.3923e-05 | 0.00044215 | 0.0021179  |   0.0 |  0.90
Neigh   | 0.0003407  | 0.00035155 | 0.00035715 |   0.0 |  0.72
Comm    | 0.018134   | 0.039523   | 0.044724   |   4.8 | 80.79
Output  | 3.1948e-05 | 3.8584e-05 | 4.4107e-05 |   0.0 |  0.08
Modify  | 0.00025344 | 0.0020602  | 0.010487   |   8.3 |  4.21
Other   |            | 0.003166   |            |       |  6.47

Nlocal:        16.1667 ave          95 max           0 min
Histogram: 5 0 0 0 0 0 0 0 0 1
Nghost:        38.8333 ave          58 max           0 min
Histogram: 1 0 0 0 1 0 0 0 3 1
Neighs:        73.5000 ave         429 max           0 min
Histogram: 5 0 0 0 0 0 0 0 0 1

Total # of neighbors = 441
Ave neighs/atom = 4.5463918
Ave special neighs/atom = 1.9793814
Neighbor list builds = 6
Dangerous builds = 0

####Collapse the IDR

timestep 10
run 1000000
Per MPI rank memory allocation (min/avg/max) = 8.892 | 8.974 | 9.133 Mbytes
Step PotEng Temp Press KinEng Lx Ly Lz Pzz S/CPU Density 
    6000    13.595472    284.04175 -0.077831394    81.280751          300          300          300  0.050417723            0 0.00066940445 
 1000000    19.201418    386.65185  0.074070367    110.64343          300          300          300  0.032591936     22620.09 0.00066940445 
 1006000    8.7453454    344.42998  0.038467708    98.561312          300          300          300   0.14299866    19477.483 0.00066940445 
Loop time of 44.2513 on 6 procs for 1000000 steps with 97 atoms

Performance: 19524.843 ns/day, 0.001 hours/ns, 22598.197 timesteps/s
99.7% CPU use with 6 MPI tasks x no OpenMP threads

MPI task timing breakdown:
Section |  min time  |  avg time  |  max time  |%varavg| %total
---------------------------------------------------------------
Pair    | 1.6141     | 5.1824     | 13.144     | 193.1 | 11.71
Bond    | 0.093408   | 0.21965    | 0.48055    |  31.3 |  0.50
Neigh   | 2.2296     | 2.252      | 2.277      |   1.1 |  5.09
Comm    | 24.906     | 34.173     | 38.36      |  87.9 | 77.23
Output  | 0.0013168  | 0.0023954  | 0.0075829  |   4.7 |  0.01
Modify  | 0.3964     | 1.041      | 2.334      |  71.0 |  2.35
Other   |            | 1.381      |            |       |  3.12

Nlocal:        16.1667 ave          97 max           0 min
Histogram: 5 0 0 0 0 0 0 0 0 1
Nghost:        8.50000 ave          50 max           0 min
Histogram: 5 0 0 0 0 0 0 0 0 1
Neighs:        282.333 ave        1694 max           0 min
Histogram: 5 0 0 0 0 0 0 0 0 1

Total # of neighbors = 1694
Ave neighs/atom = 17.463918
Ave special neighs/atom = 1.9793814
Neighbor list builds = 28043
Dangerous builds = 0

####Replicate initial system

replicate 4 4 4
Replicating atoms ...
  orthogonal box = (0.0000000 0.0000000 0.0000000) to (1200.0000 1200.0000 1200.0000)
  1 by 2 by 3 MPI processor grid
  6208 atoms
  6144 bonds
Finding 1-2 1-3 1-4 neighbors ...
  special bond factors lj:    0        1        1       
  special bond factors coul:  0        1        1       
     2 = max # of 1-2 neighbors
     6 = max # of special neighbors
  special bonds CPU = 0.000 seconds
  replicate CPU = 0.001 seconds

run 1
Per MPI rank memory allocation (min/avg/max) = 11.62 | 11.64 | 11.67 Mbytes
Step PotEng Temp Press KinEng Lx Ly Lz Pzz S/CPU Density 
 1006000     559.7021    340.93407  0.038467708     6307.924         1200         1200         1200   0.14299866            0 0.00066940445 
 1006001    492.23896    344.53405  0.046249943    6374.5305         1200         1200         1200   0.13815276    1209.0816 0.00066940445 
Loop time of 0.000837882 on 6 procs for 1 steps with 6208 atoms

Performance: 1031.171 ns/day, 0.023 hours/ns, 1193.485 timesteps/s
99.7% CPU use with 6 MPI tasks x no OpenMP threads

MPI task timing breakdown:
Section |  min time  |  avg time  |  max time  |%varavg| %total
---------------------------------------------------------------
Pair    | 0.00033402 | 0.00044731 | 0.000669   |   0.0 | 53.39
Bond    | 1.4067e-05 | 1.9193e-05 | 2.8849e-05 |   0.0 |  2.29
Neigh   | 0          | 0          | 0          |   0.0 |  0.00
Comm    | 1.3828e-05 | 0.00024744 | 0.00036502 |   0.0 | 29.53
Output  | 3.5048e-05 | 6.0717e-05 | 7.5102e-05 |   0.0 |  7.25
Modify  | 4.1962e-05 | 5.6942e-05 | 8.8215e-05 |   0.0 |  6.80
Other   |            | 6.278e-06  |            |       |  0.75

Nlocal:        1034.67 ave        1552 max         776 min
Histogram: 4 0 0 0 0 0 0 0 0 2
Nghost:        136.000 ave         400 max           0 min
Histogram: 4 0 0 0 0 0 0 0 0 2
Neighs:        18122.7 ave       27184 max       13592 min
Histogram: 4 0 0 0 0 0 0 0 0 2

Total # of neighbors = 108736
Ave neighs/atom = 17.515464
Ave special neighs/atom = 1.9793814
Neighbor list builds = 0
Dangerous builds = 0

####Smaller box size

#change_box all x final 0 300 y final 0 300 z final 0 300 remap

####Loop to compress

variable myDensity equal density
label loop
variable a loop 1000
change_box all x scale 0.95 y scale 0.95 z scale 0.95 remap
Changing box ...
  orthogonal box = (30.000000 0.0000000 0.0000000) to (1170.0000 1200.0000 1200.0000)
  orthogonal box = (30.000000 30.000000 0.0000000) to (1170.0000 1170.0000 1200.0000)
  orthogonal box = (30.000000 30.000000 30.000000) to (1170.0000 1170.0000 1170.0000)
run 8000
Per MPI rank memory allocation (min/avg/max) = 11.62 | 11.64 | 11.67 Mbytes
Step PotEng Temp Press KinEng Lx Ly Lz Pzz S/CPU Density 
 1006001    2683.3631    344.53405    1.6720688    6374.5305         1140         1140         1140    1.6244956            0 0.0007807604 
 1014001    906.57379     362.6454  0.025177443    6709.6246         1140         1140         1140 -0.0028319585    1467.1596 0.0007807604 
Loop time of 5.45283 on 6 procs for 8000 steps with 6208 atoms

Performance: 1267.600 ns/day, 0.019 hours/ns, 1467.129 timesteps/s
99.7% CPU use with 6 MPI tasks x no OpenMP threads

MPI task timing breakdown:
Section |  min time  |  avg time  |  max time  |%varavg| %total
---------------------------------------------------------------
Pair    | 1.9428     | 2.6413     | 3.9235     |  55.4 | 48.44
Bond    | 0.065942   | 0.089444   | 0.13246    |  10.0 |  1.64
Neigh   | 0.46544    | 0.4684     | 0.47164    |   0.4 |  8.59
Comm    | 0.26021    | 1.7458     | 2.5497     |  79.4 | 32.02
Output  | 5.3167e-05 | 9.1592e-05 | 0.00014901 |   0.0 |  0.00
Modify  | 0.33137    | 0.4486     | 0.67414    |  22.1 |  8.23
Other   |            | 0.05917    |            |       |  1.09

Nlocal:        1034.67 ave        1512 max         776 min
Histogram: 4 0 0 0 0 0 0 0 0 2
Nghost:        207.833 ave         530 max          56 min
Histogram: 4 0 0 0 0 0 0 1 0 1
Neighs:        15500.7 ave       24283 max       10324 min
Histogram: 1 3 0 0 0 0 0 0 0 2

Total # of neighbors = 93004
Ave neighs/atom = 14.981314
Ave special neighs/atom = 1.9793814
Neighbor list builds = 323
Dangerous builds = 0

if "${myDensity} > 1.0" then "jump SELF break"

next a
jump SELF loop
variable a loop 1000
change_box all x scale 0.95 y scale 0.95 z scale 0.95 remap
Changing box ...
  orthogonal box = (58.500000 30.000000 30.000000) to (1141.5000 1170.0000 1170.0000)
  orthogonal box = (58.500000 58.500000 30.000000) to (1141.5000 1141.5000 1170.0000)
  orthogonal box = (58.500000 58.500000 58.500000) to (1141.5000 1141.5000 1141.5000)
run 8000
Per MPI rank memory allocation (min/avg/max) = 11.62 | 11.64 | 11.67 Mbytes
Step PotEng Temp Press KinEng Lx Ly Lz Pzz S/CPU Density 
 1014001    3078.3172     362.6454    2.0016849    6709.6246         1083         1083         1083    1.9419288            0 0.0009106405 
 1022001    931.22782    375.26025  -0.01829127    6943.0232         1083         1083         1083 -0.068396616    1487.3659 0.0009106405 
Loop time of 5.37873 on 6 procs for 8000 steps with 6208 atoms

Performance: 1285.061 ns/day, 0.019 hours/ns, 1487.339 timesteps/s
99.7% CPU use with 6 MPI tasks x no OpenMP threads

MPI task timing breakdown:
Section |  min time  |  avg time  |  max time  |%varavg| %total
---------------------------------------------------------------
Pair    | 1.757      | 2.5476     | 3.9153     |  54.2 | 47.36
Bond    | 0.065774   | 0.089214   | 0.12918    |   9.5 |  1.66
Neigh   | 0.48412    | 0.4881     | 0.49176    |   0.4 |  9.07
Comm    | 0.19987    | 1.7487     | 2.6416     |  75.8 | 32.51
Output  | 4.9114e-05 | 8.4082e-05 | 0.00013018 |   0.0 |  0.00
Modify  | 0.33083    | 0.44766    | 0.66628    |  21.0 |  8.32
Other   |            | 0.05732    |            |       |  1.07

Nlocal:        1034.67 ave        1509 max         774 min
Histogram: 3 1 0 0 0 0 0 0 0 2
Nghost:        261.667 ave         646 max          75 min
Histogram: 3 1 0 0 0 0 1 0 0 1
Neighs:        15726.8 ave       24254 max       10449 min
Histogram: 2 1 1 0 0 0 0 0 1 1

Total # of neighbors = 94361
Ave neighs/atom = 15.199903
Ave special neighs/atom = 1.9793814
Neighbor list builds = 347
Dangerous builds = 0

if "${myDensity} > 1.0" then "jump SELF break"

next a
jump SELF loop
variable a loop 1000
change_box all x scale 0.95 y scale 0.95 z scale 0.95 remap
Changing box ...
  orthogonal box = (85.575000 58.500000 58.500000) to (1114.4250 1141.5000 1141.5000)
  orthogonal box = (85.575000 85.575000 58.500000) to (1114.4250 1114.4250 1141.5000)
  orthogonal box = (85.575000 85.575000 85.575000) to (1114.4250 1114.4250 1114.4250)
run 8000
Per MPI rank memory allocation (min/avg/max) = 11.62 | 11.64 | 11.67 Mbytes
Step PotEng Temp Press KinEng Lx Ly Lz Pzz S/CPU Density 
 1022001    2949.1414    375.26025    2.2833209    6943.0232      1028.85      1028.85      1028.85    2.2297834            0 0.0010621263 
 1030001    981.25036    377.48366  0.002470657    6984.1604      1028.85      1028.85      1028.85 -0.052235322    1512.8256 0.0010621263 
Loop time of 5.28981 on 6 procs for 8000 steps with 6208 atoms

Performance: 1306.664 ns/day, 0.018 hours/ns, 1512.342 timesteps/s
99.7% CPU use with 6 MPI tasks x no OpenMP threads

MPI task timing breakdown:
Section |  min time  |  avg time  |  max time  |%varavg| %total
---------------------------------------------------------------
Pair    | 1.8749     | 2.6088     | 3.8147     |  52.3 | 49.32
Bond    | 0.066045   | 0.08928    | 0.12901    |   8.8 |  1.69
Neigh   | 0.46829    | 0.47218    | 0.47583    |   0.4 |  8.93
Comm    | 0.19171    | 1.6129     | 2.4495     |  76.7 | 30.49
Output  | 5.722e-05  | 0.00034928 | 0.001724   |   0.0 |  0.01
Modify  | 0.33345    | 0.4489     | 0.66576    |  19.5 |  8.49
Other   |            | 0.05744    |            |       |  1.09

Nlocal:        1034.67 ave        1474 max         757 min
Histogram: 2 1 0 1 0 0 0 0 1 1
Nghost:        277.667 ave         520 max          73 min
Histogram: 1 0 2 0 0 1 1 0 0 1
Neighs:        15726.7 ave       23189 max       11030 min
Histogram: 2 1 1 0 0 0 0 0 1 1

Total # of neighbors = 94360
Ave neighs/atom = 15.199742
Ave special neighs/atom = 1.9793814
Neighbor list builds = 345
Dangerous builds = 0

if "${myDensity} > 1.0" then "jump SELF break"

next a
jump SELF loop
variable a loop 1000
change_box all x scale 0.95 y scale 0.95 z scale 0.95 remap
Changing box ...
  orthogonal box = (111.29625 85.575000 85.575000) to (1088.7037 1114.4250 1114.4250)
  orthogonal box = (111.29625 111.29625 85.575000) to (1088.7037 1088.7037 1114.4250)
  orthogonal box = (111.29625 111.29625 111.29625) to (1088.7037 1088.7037 1088.7037)
run 8000
Per MPI rank memory allocation (min/avg/max) = 11.62 | 11.64 | 11.67 Mbytes
Step PotEng Temp Press KinEng Lx Ly Lz Pzz S/CPU Density 
 1030001    3048.7226    377.48366    2.6867286    6984.1604     977.4075     977.4075     977.4075    2.6591132            0 0.0012388118 
 1038001    943.23329    372.28988  0.007398944    6888.0657     977.4075     977.4075     977.4075  0.023027358    1501.9923 0.0012388118 
Loop time of 5.32646 on 6 procs for 8000 steps with 6208 atoms

Performance: 1297.671 ns/day, 0.018 hours/ns, 1501.935 timesteps/s
99.7% CPU use with 6 MPI tasks x no OpenMP threads

MPI task timing breakdown:
Section |  min time  |  avg time  |  max time  |%varavg| %total
---------------------------------------------------------------
Pair    | 1.8128     | 2.5588     | 3.9422     |  48.8 | 48.04
Bond    | 0.065858   | 0.089249   | 0.12659    |   7.8 |  1.68
Neigh   | 0.45451    | 0.45803    | 0.4615     |   0.3 |  8.60
Comm    | 0.1298     | 1.7179     | 2.5749     |  68.5 | 32.25
Output  | 5.3167e-05 | 9.7116e-05 | 0.00023508 |   0.0 |  0.00
Modify  | 0.33314    | 0.44876    | 0.65455    |  17.5 |  8.43
Other   |            | 0.05357    |            |       |  1.01

Nlocal:        1034.67 ave        1461 max         767 min
Histogram: 2 1 0 1 0 0 0 1 0 1
Nghost:        333.000 ave         539 max         115 min
Histogram: 1 0 0 1 0 2 1 0 0 1
Neighs:        15760.5 ave       22789 max       11052 min
Histogram: 2 0 1 1 0 0 0 0 1 1

Total # of neighbors = 94563
Ave neighs/atom = 15.232442
Ave special neighs/atom = 1.9793814
Neighbor list builds = 343
Dangerous builds = 0

if "${myDensity} > 1.0" then "jump SELF break"

next a
jump SELF loop
variable a loop 1000
change_box all x scale 0.95 y scale 0.95 z scale 0.95 remap
Changing box ...
  orthogonal box = (135.73144 111.29625 111.29625) to (1064.2686 1088.7037 1088.7037)
  orthogonal box = (135.73144 135.73144 111.29625) to (1064.2686 1064.2686 1088.7037)
  orthogonal box = (135.73144 135.73144 135.73144) to (1064.2686 1064.2686 1064.2686)
run 8000
Per MPI rank memory allocation (min/avg/max) = 11.62 | 11.64 | 11.67 Mbytes
Step PotEng Temp Press KinEng Lx Ly Lz Pzz S/CPU Density 
 1038001    3057.5377    372.28988    3.1732849    6888.0657    928.53712    928.53712    928.53712    3.1982556            0 0.0014448891 
 1046001    989.38818     375.2008  0.033633988    6941.9232    928.53712    928.53712    928.53712  0.043666104    1511.0403 0.0014448891 
Loop time of 5.29653 on 6 procs for 8000 steps with 6208 atoms

Performance: 1305.006 ns/day, 0.018 hours/ns, 1510.424 timesteps/s
99.7% CPU use with 6 MPI tasks x no OpenMP threads

MPI task timing breakdown:
Section |  min time  |  avg time  |  max time  |%varavg| %total
---------------------------------------------------------------
Pair    | 1.8249     | 2.5514     | 3.8978     |  46.9 | 48.17
Bond    | 0.06771    | 0.089301   | 0.12743    |   7.6 |  1.69
Neigh   | 0.44861    | 0.4521     | 0.45607    |   0.3 |  8.54
Comm    | 0.14444    | 1.6984     | 2.5259     |  66.3 | 32.07
Output  | 5.7936e-05 | 0.00042824 | 0.0021999  |   0.0 |  0.01
Modify  | 0.34189    | 0.44909    | 0.65777    |  17.3 |  8.48
Other   |            | 0.05576    |            |       |  1.05

Nlocal:        1034.67 ave        1475 max         783 min
Histogram: 2 1 0 1 0 0 0 1 0 1
Nghost:        419.000 ave         610 max         180 min
Histogram: 1 1 0 0 1 0 0 1 0 2
Neighs:        15411.7 ave       23214 max       10820 min
Histogram: 3 0 0 1 0 0 0 1 0 1

Total # of neighbors = 92470
Ave neighs/atom = 14.895296
Ave special neighs/atom = 1.9793814
Neighbor list builds = 343
Dangerous builds = 0

if "${myDensity} > 1.0" then "jump SELF break"

next a
jump SELF loop
variable a loop 1000
change_box all x scale 0.95 y scale 0.95 z scale 0.95 remap
Changing box ...
  orthogonal box = (158.94487 135.73144 135.73144) to (1041.0551 1064.2686 1064.2686)
  orthogonal box = (158.94487 158.94487 135.73144) to (1041.0551 1041.0551 1064.2686)
  orthogonal box = (158.94487 158.94487 158.94487) to (1041.0551 1041.0551 1041.0551)
run 8000
Per MPI rank memory allocation (min/avg/max) = 11.62 | 11.64 | 11.67 Mbytes
Step PotEng Temp Press KinEng Lx Ly Lz Pzz S/CPU Density 
 1046001    3120.3078     375.2008    3.6975336    6941.9232    882.11027    882.11027    882.11027    3.6802278            0 0.0016852475 
 1054001    1032.1434    368.94563  -0.02774379    6826.1907    882.11027    882.11027    882.11027 6.9532947e-05    1553.9183 0.0016852475 
Loop time of 5.14837 on 6 procs for 8000 steps with 6208 atoms

Performance: 1342.561 ns/day, 0.018 hours/ns, 1553.889 timesteps/s
99.7% CPU use with 6 MPI tasks x no OpenMP threads

MPI task timing breakdown:
Section |  min time  |  avg time  |  max time  |%varavg| %total
---------------------------------------------------------------
Pair    | 1.777      | 2.4857     | 3.7514     |  46.0 | 48.28
Bond    | 0.067959   | 0.089343   | 0.12493    |   7.5 |  1.74
Neigh   | 0.42892    | 0.4315     | 0.435      |   0.3 |  8.38
Comm    | 0.17808    | 1.6384     | 2.4461     |  65.4 | 31.82
Output  | 5.1975e-05 | 7.9393e-05 | 0.00012589 |   0.0 |  0.00
Modify  | 0.34353    | 0.44969    | 0.64795    |  16.9 |  8.73
Other   |            | 0.05369    |            |       |  1.04

Nlocal:        1034.67 ave        1487 max         773 min
Histogram: 2 1 0 1 0 0 0 1 0 1
Nghost:        547.667 ave         844 max         201 min
Histogram: 1 0 0 2 0 0 0 1 1 1
Neighs:        14924.7 ave       22794 max       10461 min
Histogram: 2 0 2 0 0 0 1 0 0 1

Total # of neighbors = 89548
Ave neighs/atom = 14.424613
Ave special neighs/atom = 1.9793814
Neighbor list builds = 343
Dangerous builds = 0

if "${myDensity} > 1.0" then "jump SELF break"

next a
jump SELF loop
variable a loop 1000
change_box all x scale 0.95 y scale 0.95 z scale 0.95 remap
Changing box ...
  orthogonal box = (180.99762 158.94487 158.94487) to (1019.0024 1041.0551 1041.0551)
  orthogonal box = (180.99762 180.99762 158.94487) to (1019.0024 1019.0024 1041.0551)
  orthogonal box = (180.99762 180.99762 180.99762) to (1019.0024 1019.0024 1019.0024)
run 8000
Per MPI rank memory allocation (min/avg/max) = 11.62 | 11.64 | 11.67 Mbytes
Step PotEng Temp Press KinEng Lx Ly Lz Pzz S/CPU Density 
 1054001     3094.397    368.94563    4.2708255    6826.1907    838.00476    838.00476    838.00476    4.2816125            0 0.0019655898 
 1062001    986.33759    374.19016   0.05104834    6923.2243    838.00476    838.00476    838.00476  0.093691258    1594.3839 0.0019655898 
Loop time of 5.01772 on 6 procs for 8000 steps with 6208 atoms

Performance: 1377.518 ns/day, 0.017 hours/ns, 1594.350 timesteps/s
99.7% CPU use with 6 MPI tasks x no OpenMP threads

MPI task timing breakdown:
Section |  min time  |  avg time  |  max time  |%varavg| %total
---------------------------------------------------------------
Pair    | 1.5423     | 2.4426     | 3.6111     |  44.1 | 48.68
Bond    | 0.066442   | 0.089583   | 0.12463    |   7.6 |  1.79
Neigh   | 0.41297    | 0.41631    | 0.41986    |   0.4 |  8.30
Comm    | 0.20589    | 1.5651     | 2.571      |  63.9 | 31.19
Output  | 5.9128e-05 | 8.9566e-05 | 0.00014496 |   0.0 |  0.00
Modify  | 0.33624    | 0.45013    | 0.64535    |  17.1 |  8.97
Other   |            | 0.05396    |            |       |  1.08

Nlocal:        1034.67 ave        1413 max         757 min
Histogram: 1 1 2 0 0 0 0 0 0 2
Nghost:        582.667 ave         860 max         309 min
Histogram: 1 1 1 0 0 0 0 1 1 1
Neighs:        14953.5 ave       21292 max        9748 min
Histogram: 1 0 2 1 0 0 0 0 1 1

Total # of neighbors = 89721
Ave neighs/atom = 14.452481
Ave special neighs/atom = 1.9793814
Neighbor list builds = 344
Dangerous builds = 0

if "${myDensity} > 1.0" then "jump SELF break"

next a
jump SELF loop
variable a loop 1000
change_box all x scale 0.95 y scale 0.95 z scale 0.95 remap
Changing box ...
  orthogonal box = (201.94774 180.99762 180.99762) to (998.05226 1019.0024 1019.0024)
  orthogonal box = (201.94774 201.94774 180.99762) to (998.05226 998.05226 1019.0024)
  orthogonal box = (201.94774 201.94774 201.94774) to (998.05226 998.05226 998.05226)
run 8000
Per MPI rank memory allocation (min/avg/max) = 11.62 | 11.64 | 11.67 Mbytes
Step PotEng Temp Press KinEng Lx Ly Lz Pzz S/CPU Density 
 1062001     3115.293    374.19016    5.0145914    6923.2243    796.10452    796.10452    796.10452    5.0703323            0 0.0022925672 
 1070001    916.55951    371.61356  0.043230355    6875.5525    796.10452    796.10452    796.10452 -0.0093406719    1641.8946 0.0022925672 
Loop time of 4.87245 on 6 procs for 8000 steps with 6208 atoms

Performance: 1418.589 ns/day, 0.017 hours/ns, 1641.885 timesteps/s
99.7% CPU use with 6 MPI tasks x no OpenMP threads

MPI task timing breakdown:
Section |  min time  |  avg time  |  max time  |%varavg| %total
---------------------------------------------------------------
Pair    | 1.7583     | 2.4758     | 3.474      |  39.2 | 50.81
Bond    | 0.066957   | 0.089781   | 0.12297    |   7.6 |  1.84
Neigh   | 0.40199    | 0.40548    | 0.40882    |   0.4 |  8.32
Comm    | 0.21606    | 1.3964     | 2.2178     |  61.8 | 28.66
Output  | 4.6015e-05 | 6.6678e-05 | 8.297e-05  |   0.0 |  0.00
Modify  | 0.33874    | 0.45156    | 0.63826    |  17.1 |  9.27
Other   |            | 0.05337    |            |       |  1.10

Nlocal:        1034.67 ave        1394 max         762 min
Histogram: 1 1 2 0 0 0 0 0 0 2
Nghost:        667.500 ave         924 max         365 min
Histogram: 1 0 1 0 1 0 0 1 1 1
Neighs:        15493.0 ave       21587 max       11048 min
Histogram: 1 1 1 1 0 0 0 1 0 1

Total # of neighbors = 92958
Ave neighs/atom = 14.973905
Ave special neighs/atom = 1.9793814
Neighbor list builds = 346
Dangerous builds = 0

if "${myDensity} > 1.0" then "jump SELF break"

next a
jump SELF loop
variable a loop 1000
change_box all x scale 0.95 y scale 0.95 z scale 0.95 remap
Changing box ...
  orthogonal box = (221.85035 201.94774 201.94774) to (978.14965 998.05226 998.05226)
  orthogonal box = (221.85035 221.85035 201.94774) to (978.14965 978.14965 998.05226)
  orthogonal box = (221.85035 221.85035 221.85035) to (978.14965 978.14965 978.14965)
run 8000
Per MPI rank memory allocation (min/avg/max) = 11.62 | 11.65 | 11.68 Mbytes
Step PotEng Temp Press KinEng Lx Ly Lz Pzz S/CPU Density 
 1070001    3037.1852    371.61356    5.8422113    6875.5525    756.29929    756.29929    756.29929    5.7489159            0 0.0026739375 
 1078001    925.10995    367.91315 -0.047715586    6807.0878    756.29929    756.29929    756.29929 -0.039770136    1649.7576 0.0026739375 
Loop time of 4.84929 on 6 procs for 8000 steps with 6208 atoms

Performance: 1425.363 ns/day, 0.017 hours/ns, 1649.725 timesteps/s
99.6% CPU use with 6 MPI tasks x no OpenMP threads

MPI task timing breakdown:
Section |  min time  |  avg time  |  max time  |%varavg| %total
---------------------------------------------------------------
Pair    | 1.9085     | 2.5994     | 3.4638     |  31.7 | 53.60
Bond    | 0.066911   | 0.089652   | 0.11998    |   6.2 |  1.85
Neigh   | 0.3903     | 0.39385    | 0.39661    |   0.4 |  8.12
Comm    | 0.23652    | 1.2646     | 2.059      |  53.6 | 26.08
Output  | 5.6982e-05 | 7.538e-05  | 0.00012493 |   0.0 |  0.00
Modify  | 0.33911    | 0.4514     | 0.62036    |  14.1 |  9.31
Other   |            | 0.0503     |            |       |  1.04

Nlocal:        1034.67 ave        1381 max         786 min
Histogram: 1 1 0 1 1 1 0 0 0 1
Nghost:        667.000 ave         810 max         380 min
Histogram: 1 0 0 0 0 1 0 2 1 1
Neighs:        15846.2 ave       21248 max       11778 min
Histogram: 2 0 0 1 0 1 1 0 0 1

Total # of neighbors = 95077
Ave neighs/atom = 15.315238
Ave special neighs/atom = 1.9793814
Neighbor list builds = 346
Dangerous builds = 0

if "${myDensity} > 1.0" then "jump SELF break"

next a
jump SELF loop
variable a loop 1000
change_box all x scale 0.95 y scale 0.95 z scale 0.95 remap
Changing box ...
  orthogonal box = (240.75784 221.85035 221.85035) to (959.24216 978.14965 978.14965)
  orthogonal box = (240.75784 240.75784 221.85035) to (959.24216 959.24216 978.14965)
  orthogonal box = (240.75784 240.75784 240.75784) to (959.24216 959.24216 959.24216)
run 8000
Per MPI rank memory allocation (min/avg/max) = 11.62 | 11.65 | 11.68 Mbytes
Step PotEng Temp Press KinEng Lx Ly Lz Pzz S/CPU Density 
 1078001    2973.5079    367.91315    6.7482934    6807.0878    718.48433    718.48433    718.48433     6.694072            0 0.0031187491 
 1086001    854.19904    373.31828  0.012571645    6907.0929    718.48433    718.48433    718.48433  0.090187667    1577.9995 0.0031187491 
Loop time of 5.0698 on 6 procs for 8000 steps with 6208 atoms

Performance: 1363.367 ns/day, 0.018 hours/ns, 1577.971 timesteps/s
99.7% CPU use with 6 MPI tasks x no OpenMP threads

MPI task timing breakdown:
Section |  min time  |  avg time  |  max time  |%varavg| %total
---------------------------------------------------------------
Pair    | 1.9974     | 2.6138     | 3.6519     |  36.8 | 51.56
Bond    | 0.070965   | 0.089441   | 0.12472    |   6.2 |  1.76
Neigh   | 0.39245    | 0.39639    | 0.39896    |   0.4 |  7.82
Comm    | 0.23984    | 1.4651     | 2.1641     |  57.1 | 28.90
Output  | 6.4135e-05 | 7.9751e-05 | 0.00012422 |   0.0 |  0.00
Modify  | 0.35791    | 0.44975    | 0.64269    |  14.5 |  8.87
Other   |            | 0.05521    |            |       |  1.09

Nlocal:        1034.67 ave        1438 max         834 min
Histogram: 2 1 0 1 1 0 0 0 0 1
Nghost:        746.500 ave        1035 max         426 min
Histogram: 1 0 0 0 2 1 1 0 0 1
Neighs:        15894.0 ave       22196 max       11476 min
Histogram: 1 1 1 1 0 0 1 0 0 1

Total # of neighbors = 95364
Ave neighs/atom = 15.361469
Ave special neighs/atom = 1.9793814
Neighbor list builds = 339
Dangerous builds = 0

if "${myDensity} > 1.0" then "jump SELF break"

next a
jump SELF loop
variable a loop 1000
change_box all x scale 0.95 y scale 0.95 z scale 0.95 remap
Changing box ...
  orthogonal box = (258.71994 240.75784 240.75784) to (941.28006 959.24216 959.24216)
  orthogonal box = (258.71994 258.71994 240.75784) to (941.28006 941.28006 959.24216)
  orthogonal box = (258.71994 258.71994 258.71994) to (941.28006 941.28006 941.28006)
run 8000
Per MPI rank memory allocation (min/avg/max) = 11.63 | 11.65 | 11.68 Mbytes
Step PotEng Temp Press KinEng Lx Ly Lz Pzz S/CPU Density 
 1086001    2944.1372    373.31828    7.9282679    6907.0929    682.56011    682.56011    682.56011    8.0764568            0 0.0036375554 
 1094001    864.82583    371.33886 -0.039886726    6870.4699    682.56011    682.56011    682.56011 -0.088252952    1541.4584 0.0036375554 
Loop time of 5.18999 on 6 procs for 8000 steps with 6208 atoms

Performance: 1331.795 ns/day, 0.018 hours/ns, 1541.429 timesteps/s
99.7% CPU use with 6 MPI tasks x no OpenMP threads

MPI task timing breakdown:
Section |  min time  |  avg time  |  max time  |%varavg| %total
---------------------------------------------------------------
Pair    | 2.1087     | 2.6275     | 3.7281     |  34.1 | 50.63
Bond    | 0.073455   | 0.089801   | 0.12555    |   6.1 |  1.73
Neigh   | 0.40224    | 0.40679    | 0.40978    |   0.4 |  7.84
Comm    | 0.26743    | 1.5574     | 2.1491     |  51.9 | 30.01
Output  | 5.6982e-05 | 7.7685e-05 | 0.00012994 |   0.0 |  0.00
Modify  | 0.37124    | 0.45141    | 0.64758    |  14.4 |  8.70
Other   |            | 0.05703    |            |       |  1.10

Nlocal:        1034.67 ave        1390 max         830 min
Histogram: 2 1 0 0 2 0 0 0 0 1
Nghost:        829.500 ave        1096 max         563 min
Histogram: 1 0 0 1 1 2 0 0 0 1
Neighs:        16055.7 ave       21101 max       13423 min
Histogram: 2 0 2 0 0 1 0 0 0 1

Total # of neighbors = 96334
Ave neighs/atom = 15.517719
Ave special neighs/atom = 1.9793814
Neighbor list builds = 350
Dangerous builds = 0

if "${myDensity} > 1.0" then "jump SELF break"

next a
jump SELF loop
variable a loop 1000
change_box all x scale 0.95 y scale 0.95 z scale 0.95 remap
Changing box ...
  orthogonal box = (275.78395 258.71994 258.71994) to (924.21605 941.28006 941.28006)
  orthogonal box = (275.78395 275.78395 258.71994) to (924.21605 924.21605 941.28006)
  orthogonal box = (275.78395 275.78395 275.78395) to (924.21605 924.21605 924.21605)
run 8000
Per MPI rank memory allocation (min/avg/max) = 11.63 | 11.65 | 11.68 Mbytes
Step PotEng Temp Press KinEng Lx Ly Lz Pzz S/CPU Density 
 1094001    2909.7826    371.33886    9.1472809    6870.4699    648.43211    648.43211    648.43211    9.2509745            0 0.0042426656 
 1102001    785.39671    369.68218 -0.079671575    6839.8183    648.43211    648.43211    648.43211  0.032607408    1695.1516 0.0042426656 
Loop time of 4.71937 on 6 procs for 8000 steps with 6208 atoms

Performance: 1464.601 ns/day, 0.016 hours/ns, 1695.140 timesteps/s
99.7% CPU use with 6 MPI tasks x no OpenMP threads

MPI task timing breakdown:
Section |  min time  |  avg time  |  max time  |%varavg| %total
---------------------------------------------------------------
Pair    | 2.2687     | 2.6703     | 3.3518     |  22.5 | 56.58
Bond    | 0.074083   | 0.09       | 0.11316    |   4.6 |  1.91
Neigh   | 0.36425    | 0.36788    | 0.37045    |   0.3 |  7.80
Comm    | 0.2831     | 1.0881     | 1.5754     |  41.9 | 23.06
Output  | 0.005053   | 0.0052243  | 0.0053809  |   0.2 |  0.11
Modify  | 0.3732     | 0.45243    | 0.58321    |  10.7 |  9.59
Other   |            | 0.04543    |            |       |  0.96

Nlocal:        1034.67 ave        1267 max         851 min
Histogram: 2 0 0 1 0 1 1 0 0 1
Nghost:        856.333 ave         969 max         723 min
Histogram: 1 0 0 1 0 1 2 0 0 1
Neighs:        16737.7 ave       21341 max       13211 min
Histogram: 1 0 1 1 1 1 0 0 0 1

Total # of neighbors = 100426
Ave neighs/atom = 16.176869
Ave special neighs/atom = 1.9793814
Neighbor list builds = 340
Dangerous builds = 0

if "${myDensity} > 1.0" then "jump SELF break"

next a
jump SELF loop
variable a loop 1000
change_box all x scale 0.95 y scale 0.95 z scale 0.95 remap
Changing box ...
  orthogonal box = (291.99475 275.78395 275.78395) to (908.00525 924.21605 924.21605)
  orthogonal box = (291.99475 291.99475 275.78395) to (908.00525 908.00525 924.21605)
  orthogonal box = (291.99475 291.99475 291.99475) to (908.00525 908.00525 908.00525)
run 8000
Per MPI rank memory allocation (min/avg/max) = 11.78 | 11.81 | 11.84 Mbytes
Step PotEng Temp Press KinEng Lx Ly Lz Pzz S/CPU Density 
 1102001    2813.9602    369.68218    10.634614    6839.8183     616.0105     616.0105     616.0105     10.71779            0 0.0049484363 
 1110001     920.6013    365.90947 -0.073850538     6770.016     616.0105     616.0105     616.0105 -0.062266187     1656.763 0.0049484363 
Loop time of 4.82879 on 6 procs for 8000 steps with 6208 atoms

Performance: 1431.414 ns/day, 0.017 hours/ns, 1656.729 timesteps/s
99.7% CPU use with 6 MPI tasks x no OpenMP threads

MPI task timing breakdown:
Section |  min time  |  avg time  |  max time  |%varavg| %total
---------------------------------------------------------------
Pair    | 2.2022     | 2.6282     | 3.4656     |  26.5 | 54.43
Bond    | 0.073158   | 0.089834   | 0.11181    |   4.3 |  1.86
Neigh   | 0.36991    | 0.37315    | 0.37473    |   0.3 |  7.73
Comm    | 0.28644    | 1.243      | 1.7577     |  44.4 | 25.74
Output  | 6.1035e-05 | 7.8201e-05 | 0.00013494 |   0.0 |  0.00
Modify  | 0.36636    | 0.45038    | 0.57744    |  10.3 |  9.33
Other   |            | 0.04416    |            |       |  0.91

Nlocal:        1034.67 ave        1303 max         841 min
Histogram: 1 1 1 1 0 0 1 0 0 1
Nghost:        1028.17 ave        1124 max         885 min
Histogram: 1 0 1 0 0 0 1 1 1 1
Neighs:        15134.8 ave       19925 max       12653 min
Histogram: 2 0 2 0 0 1 0 0 0 1

Total # of neighbors = 90809
Ave neighs/atom = 14.627738
Ave special neighs/atom = 1.9793814
Neighbor list builds = 346
Dangerous builds = 0

if "${myDensity} > 1.0" then "jump SELF break"

next a
jump SELF loop
variable a loop 1000
change_box all x scale 0.95 y scale 0.95 z scale 0.95 remap
Changing box ...
  orthogonal box = (307.39501 291.99475 291.99475) to (892.60499 908.00525 908.00525)
  orthogonal box = (307.39501 307.39501 291.99475) to (892.60499 892.60499 908.00525)
  orthogonal box = (307.39501 307.39501 307.39501) to (892.60499 892.60499 892.60499)
run 8000
Per MPI rank memory allocation (min/avg/max) = 11.78 | 11.81 | 11.84 Mbytes
Step PotEng Temp Press KinEng Lx Ly Lz Pzz S/CPU Density 
 1110001    2961.8646    365.90947    12.399999     6770.016    585.20997    585.20997    585.20997    12.500979            0 0.0057716126 
 1118001    927.99804    372.62212   0.13447761    6894.2127    585.20997    585.20997    585.20997  0.031891816    1683.4932 0.0057716126 
Loop time of 4.75206 on 6 procs for 8000 steps with 6208 atoms

Performance: 1454.528 ns/day, 0.017 hours/ns, 1683.482 timesteps/s
99.7% CPU use with 6 MPI tasks x no OpenMP threads

MPI task timing breakdown:
Section |  min time  |  avg time  |  max time  |%varavg| %total
---------------------------------------------------------------
Pair    | 2.013      | 2.58       | 3.3615     |  29.5 | 54.29
Bond    | 0.073247   | 0.089878   | 0.11202    |   4.8 |  1.89
Neigh   | 0.36435    | 0.36677    | 0.36885    |   0.2 |  7.72
Comm    | 0.3179     | 1.2173     | 1.8726     |  49.8 | 25.62
Output  | 4.6015e-05 | 5.9326e-05 | 6.9857e-05 |   0.0 |  0.00
Modify  | 0.36755    | 0.4512     | 0.57785    |  11.3 |  9.49
Other   |            | 0.04685    |            |       |  0.99

Nlocal:        1034.67 ave        1308 max         821 min
Histogram: 2 0 1 1 0 0 0 0 0 2
Nghost:        1137.83 ave        1258 max         965 min
Histogram: 1 0 0 0 0 2 1 1 0 1
Neighs:        15782.0 ave       20116 max       10821 min
Histogram: 1 0 1 0 1 0 1 0 0 2

Total # of neighbors = 94692
Ave neighs/atom = 15.253222
Ave special neighs/atom = 1.9793814
Neighbor list builds = 347
Dangerous builds = 0

if "${myDensity} > 1.0" then "jump SELF break"

next a
jump SELF loop
variable a loop 1000
change_box all x scale 0.95 y scale 0.95 z scale 0.95 remap
Changing box ...
  orthogonal box = (322.02526 307.39501 307.39501) to (877.97474 892.60499 892.60499)
  orthogonal box = (322.02526 322.02526 307.39501) to (877.97474 877.97474 892.60499)
  orthogonal box = (322.02526 322.02526 322.02526) to (877.97474 877.97474 877.97474)
run 8000
Per MPI rank memory allocation (min/avg/max) = 11.78 | 11.81 | 11.84 Mbytes
Step PotEng Temp Press KinEng Lx Ly Lz Pzz S/CPU Density 
 1118001    3087.1727    372.62212    14.912528    6894.2127    555.94948    555.94948    555.94948    14.601035            0 0.0067317249 
 1126001     963.0436    375.30015  -0.05957832    6943.7613    555.94948    555.94948    555.94948    0.0803448    1679.7318 0.0067317249 
Loop time of 4.76276 on 6 procs for 8000 steps with 6208 atoms

Performance: 1451.258 ns/day, 0.017 hours/ns, 1679.697 timesteps/s
99.7% CPU use with 6 MPI tasks x no OpenMP threads

MPI task timing breakdown:
Section |  min time  |  avg time  |  max time  |%varavg| %total
---------------------------------------------------------------
Pair    | 1.8668     | 2.561      | 3.3912     |  32.9 | 53.77
Bond    | 0.07106    | 0.090085   | 0.11293    |   5.5 |  1.89
Neigh   | 0.34961    | 0.3518     | 0.35283    |   0.2 |  7.39
Comm    | 0.3098     | 1.2624     | 2.0321     |  54.2 | 26.50
Output  | 5.3883e-05 | 7.5738e-05 | 0.00013089 |   0.0 |  0.00
Modify  | 0.35639    | 0.45126    | 0.58095    |  13.0 |  9.47
Other   |            | 0.04614    |            |       |  0.97

Nlocal:        1034.67 ave        1328 max         787 min
Histogram: 2 0 1 0 1 0 0 0 0 2
Nghost:        1284.17 ave        1436 max        1049 min
Histogram: 1 0 0 0 2 0 0 0 2 1
Neighs:        15224.8 ave       21312 max       11794 min
Histogram: 2 1 0 1 0 0 1 0 0 1

Total # of neighbors = 91349
Ave neighs/atom = 14.714723
Ave special neighs/atom = 1.9793814
Neighbor list builds = 340
Dangerous builds = 0

if "${myDensity} > 1.0" then "jump SELF break"

next a
jump SELF loop
variable a loop 1000
change_box all x scale 0.95 y scale 0.95 z scale 0.95 remap
Changing box ...
  orthogonal box = (335.92400 322.02526 322.02526) to (864.07600 877.97474 877.97474)
  orthogonal box = (335.92400 335.92400 322.02526) to (864.07600 864.07600 877.97474)
  orthogonal box = (335.92400 335.92400 335.92400) to (864.07600 864.07600 864.07600)
run 8000
Per MPI rank memory allocation (min/avg/max) = 11.78 | 11.81 | 11.85 Mbytes
Step PotEng Temp Press KinEng Lx Ly Lz Pzz S/CPU Density 
 1126001    2993.8291    375.30015     16.85554    6943.7613      528.152      528.152      528.152    16.994219            0 0.0078515525 
 1134001    832.17369    370.61119  -0.21575156    6857.0068      528.152      528.152      528.152  -0.10960014    1554.7188 0.0078515525 
Loop time of 5.14572 on 6 procs for 8000 steps with 6208 atoms

Performance: 1343.252 ns/day, 0.018 hours/ns, 1554.690 timesteps/s
99.7% CPU use with 6 MPI tasks x no OpenMP threads

MPI task timing breakdown:
Section |  min time  |  avg time  |  max time  |%varavg| %total
---------------------------------------------------------------
Pair    | 2.1012     | 2.6141     | 3.7288     |  34.9 | 50.80
Bond    | 0.07065    | 0.089882   | 0.11817    |   5.7 |  1.75
Neigh   | 0.36741    | 0.36892    | 0.37021    |   0.2 |  7.17
Comm    | 0.30593    | 1.5717     | 2.1392     |  51.8 | 30.54
Output  | 5.5075e-05 | 7.7367e-05 | 0.00013018 |   0.0 |  0.00
Modify  | 0.35493    | 0.45075    | 0.60665    |  13.6 |  8.76
Other   |            | 0.0503     |            |       |  0.98

Nlocal:        1034.67 ave        1314 max         780 min
Histogram: 2 0 1 0 0 1 0 0 0 2
Nghost:        1325.67 ave        1567 max        1035 min
Histogram: 1 0 0 1 0 1 1 1 0 1
Neighs:        16303.3 ave       22118 max       12589 min
Histogram: 2 1 0 0 0 1 1 0 0 1

Total # of neighbors = 97820
Ave neighs/atom = 15.757088
Ave special neighs/atom = 1.9793814
Neighbor list builds = 339
Dangerous builds = 0

if "${myDensity} > 1.0" then "jump SELF break"

next a
jump SELF loop
variable a loop 1000
change_box all x scale 0.95 y scale 0.95 z scale 0.95 remap
Changing box ...
  orthogonal box = (349.12780 335.92400 335.92400) to (850.87220 864.07600 864.07600)
  orthogonal box = (349.12780 349.12780 335.92400) to (850.87220 850.87220 864.07600)
  orthogonal box = (349.12780 349.12780 349.12780) to (850.87220 850.87220 850.87220)
run 8000
Per MPI rank memory allocation (min/avg/max) = 11.78 | 11.81 | 11.85 Mbytes
Step PotEng Temp Press KinEng Lx Ly Lz Pzz S/CPU Density 
 1134001    2831.0012    370.61119    19.552938    6857.0068     501.7444     501.7444     501.7444    19.217096            0 0.0091576644 
 1142001    958.86585    371.91319  -0.16160923    6881.0961     501.7444     501.7444     501.7444  -0.61030872    1631.2495 0.0091576644 
Loop time of 4.9051 on 6 procs for 8000 steps with 6208 atoms

Performance: 1409.145 ns/day, 0.017 hours/ns, 1630.955 timesteps/s
99.7% CPU use with 6 MPI tasks x no OpenMP threads

MPI task timing breakdown:
Section |  min time  |  avg time  |  max time  |%varavg| %total
---------------------------------------------------------------
Pair    | 1.9936     | 2.658      | 3.4727     |  35.5 | 54.19
Bond    | 0.066532   | 0.090093   | 0.1172     |   6.5 |  1.84
Neigh   | 0.36214    | 0.36435    | 0.36614    |   0.2 |  7.43
Comm    | 0.32706    | 1.2908     | 2.0708     |  60.1 | 26.32
Output  | 5.6982e-05 | 0.00021025 | 0.00090885 |   0.0 |  0.00
Modify  | 0.3291     | 0.45251    | 0.60362    |  15.6 |  9.23
Other   |            | 0.04913    |            |       |  1.00

Nlocal:        1034.67 ave        1386 max         736 min
Histogram: 2 0 0 1 0 1 0 0 1 1
Nghost:        1402.33 ave        1841 max        1035 min
Histogram: 1 1 0 0 1 1 1 0 0 1
Neighs:        15948.0 ave       20431 max       11452 min
Histogram: 1 1 1 0 0 0 1 0 0 2

Total # of neighbors = 95688
Ave neighs/atom = 15.413660
Ave special neighs/atom = 1.9793814
Neighbor list builds = 342
Dangerous builds = 0

if "${myDensity} > 1.0" then "jump SELF break"

next a
jump SELF loop
variable a loop 1000
change_box all x scale 0.95 y scale 0.95 z scale 0.95 remap
Changing box ...
  orthogonal box = (361.67141 349.12780 349.12780) to (838.32859 850.87220 850.87220)
  orthogonal box = (361.67141 361.67141 349.12780) to (838.32859 838.32859 850.87220)
  orthogonal box = (361.67141 361.67141 361.67141) to (838.32859 838.32859 838.32859)
run 8000
Per MPI rank memory allocation (min/avg/max) = 11.78 | 11.81 | 11.85 Mbytes
Step PotEng Temp Press KinEng Lx Ly Lz Pzz S/CPU Density 
 1142001    2999.7082    371.91319    23.090388    6881.0961    476.65718    476.65718    476.65718    22.211116            0  0.010681049 
 1150001    921.17946    376.22301  -0.12407448     6960.836    476.65718    476.65718    476.65718  -0.59558512    1620.0268  0.010681049 
Loop time of 4.93822 on 6 procs for 8000 steps with 6208 atoms

Performance: 1399.694 ns/day, 0.017 hours/ns, 1620.016 timesteps/s
99.7% CPU use with 6 MPI tasks x no OpenMP threads

MPI task timing breakdown:
Section |  min time  |  avg time  |  max time  |%varavg| %total
---------------------------------------------------------------
Pair    | 1.9263     | 2.6523     | 3.3439     |  30.0 | 53.71
Bond    | 0.06606    | 0.090165   | 0.11707    |   6.1 |  1.83
Neigh   | 0.37074    | 0.37241    | 0.37568    |   0.3 |  7.54
Comm    | 0.48381    | 1.3222     | 2.169      |  50.8 | 26.78
Output  | 4.1962e-05 | 6.028e-05  | 7.081e-05  |   0.0 |  0.00
Modify  | 0.33198    | 0.45193    | 0.60094    |  14.5 |  9.15
Other   |            | 0.04914    |            |       |  1.00

Nlocal:        1034.67 ave        1290 max         809 min
Histogram: 1 1 0 1 1 0 0 0 1 1
Nghost:        1618.67 ave        1812 max        1358 min
Histogram: 1 0 1 0 0 0 1 1 1 1
Neighs:        15719.0 ave       20360 max       11915 min
Histogram: 1 0 1 1 1 0 1 0 0 1

Total # of neighbors = 94314
Ave neighs/atom = 15.192332
Ave special neighs/atom = 1.9793814
Neighbor list builds = 348
Dangerous builds = 0

if "${myDensity} > 1.0" then "jump SELF break"

next a
jump SELF loop
variable a loop 1000
change_box all x scale 0.95 y scale 0.95 z scale 0.95 remap
Changing box ...
  orthogonal box = (373.58784 361.67141 361.67141) to (826.41216 838.32859 838.32859)
  orthogonal box = (373.58784 373.58784 361.67141) to (826.41216 826.41216 838.32859)
  orthogonal box = (373.58784 373.58784 373.58784) to (826.41216 826.41216 826.41216)
run 8000
Per MPI rank memory allocation (min/avg/max) = 11.79 | 11.82 | 11.85 Mbytes
Step PotEng Temp Press KinEng Lx Ly Lz Pzz S/CPU Density 
 1150001    2979.9564    376.22301    27.124299     6960.836    452.82432    452.82432    452.82432    26.617279            0   0.01245785 
 1158001    997.84675    373.73316 -0.080392338     6914.769    452.82432    452.82432    452.82432 -0.082076515    1727.2921   0.01245785 
Loop time of 4.63183 on 6 procs for 8000 steps with 6208 atoms

Performance: 1492.284 ns/day, 0.016 hours/ns, 1727.181 timesteps/s
99.7% CPU use with 6 MPI tasks x no OpenMP threads

MPI task timing breakdown:
Section |  min time  |  avg time  |  max time  |%varavg| %total
---------------------------------------------------------------
Pair    | 2.081      | 2.5836     | 3.1379     |  25.0 | 55.78
Bond    | 0.074543   | 0.090478   | 0.10842    |   4.3 |  1.95
Neigh   | 0.34123    | 0.34307    | 0.34523    |   0.2 |  7.41
Comm    | 0.47777    | 1.1202     | 1.7019     |  44.5 | 24.19
Output  | 4.1962e-05 | 0.00010447 | 0.00034094 |   0.0 |  0.00
Modify  | 0.35865    | 0.45259    | 0.54409    |  10.5 |  9.77
Other   |            | 0.0418     |            |       |  0.90

Nlocal:        1034.67 ave        1235 max         859 min
Histogram: 1 1 0 1 1 0 0 0 1 1
Nghost:        1615.00 ave        1816 max        1267 min
Histogram: 1 0 0 1 0 0 0 2 1 1
Neighs:        16161.3 ave       20244 max       11574 min
Histogram: 1 0 1 0 1 0 1 0 1 1

Total # of neighbors = 96968
Ave neighs/atom = 15.619845
Ave special neighs/atom = 1.9793814
Neighbor list builds = 341
Dangerous builds = 0

if "${myDensity} > 1.0" then "jump SELF break"

next a
jump SELF loop
variable a loop 1000
change_box all x scale 0.95 y scale 0.95 z scale 0.95 remap
Changing box ...
  orthogonal box = (384.90845 373.58784 373.58784) to (815.09155 826.41216 826.41216)
  orthogonal box = (384.90845 384.90845 373.58784) to (815.09155 815.09155 826.41216)
  orthogonal box = (384.90845 384.90845 384.90845) to (815.09155 815.09155 815.09155)
run 8000
Per MPI rank memory allocation (min/avg/max) = 11.79 | 11.82 | 11.85 Mbytes
Step PotEng Temp Press KinEng Lx Ly Lz Pzz S/CPU Density 
 1158001     3034.355    373.73316    31.189738     6914.769    430.18311    430.18311    430.18311      31.0844            0  0.014530223 
 1166001    884.25075    371.85091    0.8334396    6879.9439    430.18311    430.18311    430.18311    1.4918214    1639.1562  0.014530223 
Loop time of 4.8806 on 6 procs for 8000 steps with 6208 atoms

Performance: 1416.219 ns/day, 0.017 hours/ns, 1639.143 timesteps/s
99.7% CPU use with 6 MPI tasks x no OpenMP threads

MPI task timing breakdown:
Section |  min time  |  avg time  |  max time  |%varavg| %total
---------------------------------------------------------------
Pair    | 1.945      | 2.6899     | 3.4194     |  29.5 | 55.11
Bond    | 0.070896   | 0.09037    | 0.10809    |   4.6 |  1.85
Neigh   | 0.34435    | 0.34631    | 0.34914    |   0.3 |  7.10
Comm    | 0.45256    | 1.2597     | 2.1051     |  49.3 | 25.81
Output  | 4.8876e-05 | 6.6757e-05 | 8.1062e-05 |   0.0 |  0.00
Modify  | 0.34114    | 0.45228    | 0.55545    |  11.1 |  9.27
Other   |            | 0.04196    |            |       |  0.86

Nlocal:        1034.67 ave        1228 max         786 min
Histogram: 1 0 0 0 2 0 1 0 1 1
Nghost:        1721.33 ave        1905 max        1438 min
Histogram: 1 1 0 0 0 0 0 1 1 2
Neighs:        16164.0 ave       20852 max       12329 min
Histogram: 1 0 0 0 4 0 0 0 0 1

Total # of neighbors = 96984
Ave neighs/atom = 15.622423
Ave special neighs/atom = 1.9793814
Neighbor list builds = 340
Dangerous builds = 0

if "${myDensity} > 1.0" then "jump SELF break"

next a
jump SELF loop
variable a loop 1000
change_box all x scale 0.95 y scale 0.95 z scale 0.95 remap
Changing box ...
  orthogonal box = (395.66302 384.90845 384.90845) to (804.33698 815.09155 815.09155)
  orthogonal box = (395.66302 395.66302 384.90845) to (804.33698 804.33698 815.09155)
  orthogonal box = (395.66302 395.66302 395.66302) to (804.33698 804.33698 804.33698)
run 8000
Per MPI rank memory allocation (min/avg/max) = 11.79 | 11.82 | 11.85 Mbytes
Step PotEng Temp Press KinEng Lx Ly Lz Pzz S/CPU Density 
 1166001    3112.0485    371.85091    37.812453    6879.9439    408.67395    408.67395    408.67395    38.006486            0  0.016947337 
 1174001    929.72348    369.67977    0.9112579    6839.7736    408.67395    408.67395    408.67395    1.0722906    1659.9587  0.016947337 
Loop time of 4.8207 on 6 procs for 8000 steps with 6208 atoms

Performance: 1433.818 ns/day, 0.017 hours/ns, 1659.512 timesteps/s
99.7% CPU use with 6 MPI tasks x no OpenMP threads

MPI task timing breakdown:
Section |  min time  |  avg time  |  max time  |%varavg| %total
---------------------------------------------------------------
Pair    | 1.8212     | 2.673      | 3.2796     |  29.4 | 55.45
Bond    | 0.066285   | 0.090382   | 0.1034     |   4.8 |  1.87
Neigh   | 0.34439    | 0.34611    | 0.34875    |   0.3 |  7.18
Comm    | 0.55651    | 1.2187     | 2.1924     |  49.9 | 25.28
Output  | 4.0054e-05 | 0.00026659 | 0.0013351  |   0.0 |  0.01
Modify  | 0.31868    | 0.45156    | 0.53132    |  11.5 |  9.37
Other   |            | 0.0407     |            |       |  0.84

Nlocal:        1034.67 ave        1258 max         754 min
Histogram: 1 1 0 0 0 0 1 0 2 1
Nghost:        1717.67 ave        2153 max        1354 min
Histogram: 1 1 0 0 2 0 0 1 0 1
Neighs:        16585.5 ave       20475 max       12213 min
Histogram: 2 0 0 0 0 0 2 0 1 1

Total # of neighbors = 99513
Ave neighs/atom = 16.029800
Ave special neighs/atom = 1.9793814
Neighbor list builds = 337
Dangerous builds = 0

if "${myDensity} > 1.0" then "jump SELF break"

next a
jump SELF loop
variable a loop 1000
change_box all x scale 0.95 y scale 0.95 z scale 0.95 remap
Changing box ...
  orthogonal box = (405.87987 395.66302 395.66302) to (794.12013 804.33698 804.33698)
  orthogonal box = (405.87987 405.87987 395.66302) to (794.12013 794.12013 804.33698)
  orthogonal box = (405.87987 405.87987 405.87987) to (794.12013 794.12013 794.12013)
run 8000
Per MPI rank memory allocation (min/avg/max) = 11.79 | 11.82 | 11.85 Mbytes
Step PotEng Temp Press KinEng Lx Ly Lz Pzz S/CPU Density 
 1174001    3194.0206    369.67977    44.983677    6839.7736    388.24025    388.24025    388.24025    45.245141            0   0.01976654 
 1182001    801.68932    370.46968   -0.2391492    6854.3885    388.24025    388.24025    388.24025   0.18396443    1590.3485   0.01976654 
Loop time of 5.03044 on 6 procs for 8000 steps with 6208 atoms

Performance: 1374.034 ns/day, 0.017 hours/ns, 1590.317 timesteps/s
99.7% CPU use with 6 MPI tasks x no OpenMP threads

MPI task timing breakdown:
Section |  min time  |  avg time  |  max time  |%varavg| %total
---------------------------------------------------------------
Pair    | 1.8899     | 2.7802     | 3.5395     |  38.5 | 55.27
Bond    | 0.066402   | 0.090515   | 0.11033    |   5.9 |  1.80
Neigh   | 0.3657     | 0.36806    | 0.37165    |   0.4 |  7.32
Comm    | 0.44514    | 1.2996     | 2.3122     |  64.1 | 25.83
Output  | 4.1008e-05 | 6.9658e-05 | 0.00013709 |   0.0 |  0.00
Modify  | 0.31854    | 0.45182    | 0.54798    |  13.8 |  8.98
Other   |            | 0.04018    |            |       |  0.80

Nlocal:        1034.67 ave        1255 max         726 min
Histogram: 2 0 0 0 0 0 1 0 0 3
Nghost:        1716.50 ave        2221 max        1320 min
Histogram: 2 0 0 0 1 1 1 0 0 1
Neighs:        16742.3 ave       21475 max       11436 min
Histogram: 2 0 0 0 0 1 0 1 1 1

Total # of neighbors = 100454
Ave neighs/atom = 16.181379
Ave special neighs/atom = 1.9793814
Neighbor list builds = 335
Dangerous builds = 0

if "${myDensity} > 1.0" then "jump SELF break"

next a
jump SELF loop
variable a loop 1000
change_box all x scale 0.95 y scale 0.95 z scale 0.95 remap
Changing box ...
  orthogonal box = (415.58588 405.87987 405.87987) to (784.41412 794.12013 794.12013)
  orthogonal box = (415.58588 415.58588 405.87987) to (784.41412 784.41412 794.12013)
  orthogonal box = (415.58588 415.58588 415.58588) to (784.41412 784.41412 784.41412)
run 8000
Per MPI rank memory allocation (min/avg/max) = 11.79 | 11.82 | 11.85 Mbytes
Step PotEng Temp Press KinEng Lx Ly Lz Pzz S/CPU Density 
 1182001    2851.7599    370.46968    49.809763    6854.3885    368.82824    368.82824    368.82824     50.38467            0  0.023054719 
 1190001    803.93732    372.32353  0.027431904    6888.6882    368.82824    368.82824    368.82824  0.035396869    1526.8944  0.023054719 
Loop time of 5.23983 on 6 procs for 8000 steps with 6208 atoms

Performance: 1319.126 ns/day, 0.018 hours/ns, 1526.767 timesteps/s
99.7% CPU use with 6 MPI tasks x no OpenMP threads

MPI task timing breakdown:
Section |  min time  |  avg time  |  max time  |%varavg| %total
---------------------------------------------------------------
Pair    | 1.6659     | 2.8237     | 3.6641     |  41.2 | 53.89
Bond    | 0.061164   | 0.090498   | 0.11371    |   6.4 |  1.73
Neigh   | 0.41171    | 0.41584    | 0.4198     |   0.4 |  7.94
Comm    | 0.46011    | 1.4132     | 2.7196     |  66.4 | 26.97
Output  | 4.2915e-05 | 0.00013598 | 0.00048518 |   0.0 |  0.00
Modify  | 0.30783    | 0.45314    | 0.5673     |  14.9 |  8.65
Other   |            | 0.04333    |            |       |  0.83

Nlocal:        1034.67 ave        1291 max         757 min
Histogram: 2 0 0 0 1 0 1 0 0 2
Nghost:        1831.17 ave        2203 max        1314 min
Histogram: 2 0 0 0 0 0 0 2 1 1
Neighs:        17958.3 ave       23532 max       11110 min
Histogram: 1 0 1 0 1 0 1 0 1 1

Total # of neighbors = 107750
Ave neighs/atom = 17.356637
Ave special neighs/atom = 1.9793814
Neighbor list builds = 339
Dangerous builds = 0

if "${myDensity} > 1.0" then "jump SELF break"

next a
jump SELF loop
variable a loop 1000
change_box all x scale 0.95 y scale 0.95 z scale 0.95 remap
Changing box ...
  orthogonal box = (424.80659 415.58588 415.58588) to (775.19341 784.41412 784.41412)
  orthogonal box = (424.80659 424.80659 415.58588) to (775.19341 775.19341 784.41412)
  orthogonal box = (424.80659 424.80659 424.80659) to (775.19341 775.19341 775.19341)
run 8000
Per MPI rank memory allocation (min/avg/max) = 11.79 | 11.82 | 11.85 Mbytes
Step PotEng Temp Press KinEng Lx Ly Lz Pzz S/CPU Density 
 1190001    2889.2162    372.32353    58.562993    6888.6882    350.38683    350.38683    350.38683    59.225632            0  0.026889889 
 1198001    780.97366    375.56847  -0.62490493    6948.7258    350.38683    350.38683    350.38683  -0.21847853     1404.396  0.026889889 
Loop time of 5.6965 on 6 procs for 8000 steps with 6208 atoms

Performance: 1213.378 ns/day, 0.020 hours/ns, 1404.372 timesteps/s
99.6% CPU use with 6 MPI tasks x no OpenMP threads

MPI task timing breakdown:
Section |  min time  |  avg time  |  max time  |%varavg| %total
---------------------------------------------------------------
Pair    | 1.8845     | 2.9631     | 3.9913     |  44.9 | 52.02
Bond    | 0.060544   | 0.090233   | 0.11786    |   6.8 |  1.58
Neigh   | 0.45888    | 0.46426    | 0.46963    |   0.6 |  8.15
Comm    | 0.52015    | 1.6771     | 2.8987     |  67.4 | 29.44
Output  | 4.4823e-05 | 7.844e-05  | 0.00015211 |   0.0 |  0.00
Modify  | 0.29345    | 0.45173    | 0.58526    |  15.5 |  7.93
Other   |            | 0.04994    |            |       |  0.88

Nlocal:        1034.67 ave        1372 max         660 min
Histogram: 1 1 0 0 1 0 1 0 0 2
Nghost:        1977.50 ave        2301 max        1463 min
Histogram: 1 0 1 0 0 0 1 0 1 2
Neighs:        17604.3 ave       24557 max       10086 min
Histogram: 1 1 0 0 1 0 1 0 0 2

Total # of neighbors = 105626
Ave neighs/atom = 17.014497
Ave special neighs/atom = 1.9793814
Neighbor list builds = 347
Dangerous builds = 0

if "${myDensity} > 1.0" then "jump SELF break"

next a
jump SELF loop
variable a loop 1000
change_box all x scale 0.95 y scale 0.95 z scale 0.95 remap
Changing box ...
  orthogonal box = (433.56626 424.80659 424.80659) to (766.43374 775.19341 775.19341)
  orthogonal box = (433.56626 433.56626 424.80659) to (766.43374 766.43374 775.19341)
  orthogonal box = (433.56626 433.56626 433.56626) to (766.43374 766.43374 766.43374)
run 8000
Per MPI rank memory allocation (min/avg/max) = 11.79 | 11.82 | 11.85 Mbytes
Step PotEng Temp Press KinEng Lx Ly Lz Pzz S/CPU Density 
 1198001    2792.3618    375.56847    67.418036    6948.7258    332.86749    332.86749    332.86749    68.017023            0  0.031363043 
 1206001    813.32187    374.65177  -0.82807537    6931.7651    332.86749    332.86749    332.86749  -0.86159933    1322.3173  0.031363043 
Loop time of 6.05009 on 6 procs for 8000 steps with 6208 atoms

Performance: 1142.462 ns/day, 0.021 hours/ns, 1322.294 timesteps/s
99.7% CPU use with 6 MPI tasks x no OpenMP threads

MPI task timing breakdown:
Section |  min time  |  avg time  |  max time  |%varavg| %total
---------------------------------------------------------------
Pair    | 1.459      | 3.0017     | 4.163      |  58.1 | 49.61
Bond    | 0.055263   | 0.090349   | 0.11889    |   8.1 |  1.49
Neigh   | 0.48223    | 0.48673    | 0.49128    |   0.5 |  8.04
Comm    | 0.66302    | 1.961      | 3.6747     |  80.4 | 32.41
Output  | 0.002804   | 0.0029675  | 0.0032282  |   0.3 |  0.05
Modify  | 0.26682    | 0.45141    | 0.59276    |  18.4 |  7.46
Other   |            | 0.05588    |            |       |  0.92

Nlocal:        1034.67 ave        1440 max         599 min
Histogram: 1 1 0 0 0 1 1 0 1 1
Nghost:        2102.67 ave        2420 max        1439 min
Histogram: 1 0 0 0 0 1 0 1 2 1
Neighs:        18829.2 ave       28879 max        8273 min
Histogram: 1 0 1 0 1 0 1 1 0 1

Total # of neighbors = 112975
Ave neighs/atom = 18.198293
Ave special neighs/atom = 1.9793814
Neighbor list builds = 342
Dangerous builds = 0

if "${myDensity} > 1.0" then "jump SELF break"

next a
jump SELF loop
variable a loop 1000
change_box all x scale 0.95 y scale 0.95 z scale 0.95 remap
Changing box ...
  orthogonal box = (441.88794 433.56626 433.56626) to (758.11206 766.43374 766.43374)
  orthogonal box = (441.88794 441.88794 433.56626) to (758.11206 758.11206 766.43374)
  orthogonal box = (441.88794 441.88794 441.88794) to (758.11206 758.11206 758.11206)
run 8000
Per MPI rank memory allocation (min/avg/max) = 11.80 | 11.83 | 11.86 Mbytes
Step PotEng Temp Press KinEng Lx Ly Lz Pzz S/CPU Density 
 1206001    2865.8944    374.65177    80.024445    6931.7651    316.22411    316.22411    316.22411    80.452192            0   0.03658031 
 1214001    726.70687    374.73531  -0.38807241    6933.3108    316.22411    316.22411    316.22411  -0.32958004    1264.1554   0.03658031 
Loop time of 6.32924 on 6 procs for 8000 steps with 6208 atoms

Performance: 1092.073 ns/day, 0.022 hours/ns, 1263.974 timesteps/s
99.7% CPU use with 6 MPI tasks x no OpenMP threads

MPI task timing breakdown:
Section |  min time  |  avg time  |  max time  |%varavg| %total
---------------------------------------------------------------
Pair    | 1.4718     | 3.1665     | 4.4392     |  61.3 | 50.03
Bond    | 0.053586   | 0.090713   | 0.12192    |   8.0 |  1.43
Neigh   | 0.5022     | 0.50741    | 0.51306    |   0.5 |  8.02
Comm    | 0.6338     | 2.0514     | 3.9263     |  84.4 | 32.41
Output  | 4.2915e-05 | 0.00021768 | 0.00097108 |   0.0 |  0.00
Modify  | 0.25824    | 0.45325    | 0.60793    |  18.4 |  7.16
Other   |            | 0.05972    |            |       |  0.94

Nlocal:        1034.67 ave        1443 max         579 min
Histogram: 1 0 1 0 1 1 0 0 1 1
Nghost:        2182.33 ave        2430 max        1617 min
Histogram: 1 0 0 0 1 0 0 1 0 3
Neighs:        19929.8 ave       29437 max        8189 min
Histogram: 1 0 1 0 1 0 0 1 1 1

Total # of neighbors = 119579
Ave neighs/atom = 19.262081
Ave special neighs/atom = 1.9793814
Neighbor list builds = 344
Dangerous builds = 0

if "${myDensity} > 1.0" then "jump SELF break"

next a
jump SELF loop
variable a loop 1000
change_box all x scale 0.95 y scale 0.95 z scale 0.95 remap
Changing box ...
  orthogonal box = (449.79355 441.88794 441.88794) to (750.20645 758.11206 758.11206)
  orthogonal box = (449.79355 449.79355 441.88794) to (750.20645 750.20645 758.11206)
  orthogonal box = (449.79355 449.79355 449.79355) to (750.20645 750.20645 750.20645)
run 8000
Per MPI rank memory allocation (min/avg/max) = 11.80 | 11.83 | 11.87 Mbytes
Step PotEng Temp Press KinEng Lx Ly Lz Pzz S/CPU Density 
 1214001    2771.5144    374.73531    92.228224    6933.3108    300.41291    300.41291    300.41291     92.72101            0  0.042665473 
 1222001    813.21427    371.60763  -0.66105439    6875.4428    300.41291    300.41291    300.41291   -1.6960842      1162.79  0.042665473 
Loop time of 6.88011 on 6 procs for 8000 steps with 6208 atoms

Performance: 1004.636 ns/day, 0.024 hours/ns, 1162.773 timesteps/s
99.7% CPU use with 6 MPI tasks x no OpenMP threads

MPI task timing breakdown:
Section |  min time  |  avg time  |  max time  |%varavg| %total
---------------------------------------------------------------
Pair    | 1.4866     | 3.3662     | 4.8548     |  67.6 | 48.93
Bond    | 0.052988   | 0.090562   | 0.12481    |   8.0 |  1.32
Neigh   | 0.5373     | 0.54401    | 0.5502     |   0.6 |  7.91
Comm    | 0.71696    | 2.3649     | 4.427      |  88.1 | 34.37
Output  | 4.1962e-05 | 8.6586e-05 | 0.00017095 |   0.0 |  0.00
Modify  | 0.2559     | 0.45189    | 0.62267    |  18.1 |  6.57
Other   |            | 0.06241    |            |       |  0.91

Nlocal:        1034.67 ave        1449 max         639 min
Histogram: 1 0 1 0 2 0 0 1 0 1
Nghost:        2317.17 ave        2749 max        1863 min
Histogram: 1 0 0 1 1 1 0 1 0 1
Neighs:        20615.3 ave       30798 max       10692 min
Histogram: 1 1 0 0 2 0 0 0 0 2

Total # of neighbors = 123692
Ave neighs/atom = 19.924613
Ave special neighs/atom = 1.9793814
Neighbor list builds = 339
Dangerous builds = 0

if "${myDensity} > 1.0" then "jump SELF break"

next a
jump SELF loop
variable a loop 1000
change_box all x scale 0.95 y scale 0.95 z scale 0.95 remap
Changing box ...
  orthogonal box = (457.30387 449.79355 449.79355) to (742.69613 750.20645 750.20645)
  orthogonal box = (457.30387 457.30387 449.79355) to (742.69613 742.69613 750.20645)
  orthogonal box = (457.30387 457.30387 457.30387) to (742.69613 742.69613 742.69613)
run 8000
Per MPI rank memory allocation (min/avg/max) = 11.80 | 11.83 | 11.87 Mbytes
Step PotEng Temp Press KinEng Lx Ly Lz Pzz S/CPU Density 
 1222001     2859.077    371.60763    107.67772    6875.4428    285.39226    285.39226    285.39226    108.98998            0  0.049762908 
 1230001    661.85071     372.7616   0.88601387    6896.7934    285.39226    285.39226    285.39226   0.74230781    1240.6894  0.049762908 
Loop time of 6.44813 on 6 procs for 8000 steps with 6208 atoms

Performance: 1071.939 ns/day, 0.022 hours/ns, 1240.671 timesteps/s
99.7% CPU use with 6 MPI tasks x no OpenMP threads

MPI task timing breakdown:
Section |  min time  |  avg time  |  max time  |%varavg| %total
---------------------------------------------------------------
Pair    | 2.0152     | 3.3768     | 4.4297     |  48.4 | 52.37
Bond    | 0.058813   | 0.09067    | 0.12097    |   6.7 |  1.41
Neigh   | 0.53736    | 0.54365    | 0.54952    |   0.6 |  8.43
Comm    | 0.73075    | 1.922      | 3.4361     |  70.8 | 29.81
Output  | 4.6015e-05 | 7.9751e-05 | 0.00016499 |   0.0 |  0.00
Modify  | 0.28468    | 0.45276    | 0.60516    |  15.2 |  7.02
Other   |            | 0.06218    |            |       |  0.96

Nlocal:        1034.67 ave        1268 max         663 min
Histogram: 1 0 0 0 1 0 2 0 0 2
Nghost:        2560.33 ave        3227 max        1791 min
Histogram: 1 0 1 0 1 0 0 2 0 1
Neighs:        20770.5 ave       26025 max       12830 min
Histogram: 1 0 0 1 0 1 0 0 1 2

Total # of neighbors = 124623
Ave neighs/atom = 20.074581
Ave special neighs/atom = 1.9793814
Neighbor list builds = 346
Dangerous builds = 0

if "${myDensity} > 1.0" then "jump SELF break"

next a
jump SELF loop
variable a loop 1000
change_box all x scale 0.95 y scale 0.95 z scale 0.95 remap
Changing box ...
  orthogonal box = (464.43868 457.30387 457.30387) to (735.56132 742.69613 742.69613)
  orthogonal box = (464.43868 464.43868 457.30387) to (735.56132 735.56132 742.69613)
  orthogonal box = (464.43868 464.43868 464.43868) to (735.56132 735.56132 735.56132)
run 8000
Per MPI rank memory allocation (min/avg/max) = 11.80 | 11.83 | 11.87 Mbytes
Step PotEng Temp Press KinEng Lx Ly Lz Pzz S/CPU Density 
 1230001    2805.9199     372.7616    128.28935    6896.7934    271.12265    271.12265    271.12265    126.65092            0  0.058041006 
 1238001     749.1204    366.23594  -0.21513586    6776.0564    271.12265    271.12265    271.12265    0.2876461    1103.7468  0.058041006 
Loop time of 7.24813 on 6 procs for 8000 steps with 6208 atoms

Performance: 953.625 ns/day, 0.025 hours/ns, 1103.732 timesteps/s
99.6% CPU use with 6 MPI tasks x no OpenMP threads

MPI task timing breakdown:
Section |  min time  |  avg time  |  max time  |%varavg| %total
---------------------------------------------------------------
Pair    | 1.889      | 3.4457     | 5.1442     |  55.6 | 47.54
Bond    | 0.056317   | 0.090835   | 0.12162    |   6.7 |  1.25
Neigh   | 0.64491    | 0.6508     | 0.6577     |   0.6 |  8.98
Comm    | 0.71056    | 2.5508     | 4.2679     |  70.5 | 35.19
Output  | 4.3154e-05 | 7.7566e-05 | 0.00015903 |   0.0 |  0.00
Modify  | 0.27316    | 0.4523     | 0.60008    |  15.2 |  6.24
Other   |            | 0.05763    |            |       |  0.80

Nlocal:        1034.67 ave        1414 max         668 min
Histogram: 1 0 1 0 2 0 0 1 0 1
Nghost:        2833.50 ave        3590 max        2031 min
Histogram: 1 1 0 0 1 0 1 0 1 1
Neighs:        21154.5 ave       33406 max       12202 min
Histogram: 1 1 0 1 1 0 1 0 0 1

Total # of neighbors = 126927
Ave neighs/atom = 20.445715
Ave special neighs/atom = 1.9793814
Neighbor list builds = 345
Dangerous builds = 0

if "${myDensity} > 1.0" then "jump SELF break"

next a
jump SELF loop
variable a loop 1000
change_box all x scale 0.95 y scale 0.95 z scale 0.95 remap
Changing box ...
  orthogonal box = (471.21674 464.43868 464.43868) to (728.78326 735.56132 735.56132)
  orthogonal box = (471.21674 471.21674 464.43868) to (728.78326 728.78326 735.56132)
  orthogonal box = (471.21674 471.21674 471.21674) to (728.78326 728.78326 728.78326)
run 8000
Per MPI rank memory allocation (min/avg/max) = 11.80 | 11.84 | 11.88 Mbytes
Step PotEng Temp Press KinEng Lx Ly Lz Pzz S/CPU Density 
 1238001    2846.4633    366.23594    147.91164    6776.0564    257.56652    257.56652    257.56652    145.17799            0  0.067696173 
 1246001    721.97141    369.77725    1.2301851    6841.5772    257.56652    257.56652    257.56652    2.6447512    1026.1883  0.067696173 
Loop time of 7.79595 on 6 procs for 8000 steps with 6208 atoms

Performance: 886.614 ns/day, 0.027 hours/ns, 1026.174 timesteps/s
99.6% CPU use with 6 MPI tasks x no OpenMP threads

MPI task timing breakdown:
Section |  min time  |  avg time  |  max time  |%varavg| %total
---------------------------------------------------------------
Pair    | 2.1078     | 3.5936     | 5.5716     |  60.5 | 46.10
Bond    | 0.060927   | 0.090989   | 0.12701    |   7.2 |  1.17
Neigh   | 0.70925    | 0.71343    | 0.72068    |   0.5 |  9.15
Comm    | 0.73571    | 2.8845     | 4.5062     |  73.5 | 37.00
Output  | 4.8161e-05 | 9.0082e-05 | 0.00017905 |   0.0 |  0.00
Modify  | 0.29428    | 0.45162    | 0.62524    |  16.0 |  5.79
Other   |            | 0.0618     |            |       |  0.79

Nlocal:        1034.67 ave        1481 max         696 min
Histogram: 1 1 0 1 1 0 1 0 0 1
Nghost:        3023.67 ave        4008 max        2113 min
Histogram: 1 1 0 1 0 0 1 1 0 1
Neighs:        23149.2 ave       39318 max       12424 min
Histogram: 2 0 0 1 1 1 0 0 0 1

Total # of neighbors = 138895
Ave neighs/atom = 22.373550
Ave special neighs/atom = 1.9793814
Neighbor list builds = 339
Dangerous builds = 0

if "${myDensity} > 1.0" then "jump SELF break"

next a
jump SELF loop
variable a loop 1000
change_box all x scale 0.95 y scale 0.95 z scale 0.95 remap
Changing box ...
  orthogonal box = (477.65590 471.21674 471.21674) to (722.34410 728.78326 728.78326)
  orthogonal box = (477.65590 477.65590 471.21674) to (722.34410 722.34410 728.78326)
  orthogonal box = (477.65590 477.65590 477.65590) to (722.34410 722.34410 722.34410)
run 8000
Per MPI rank memory allocation (min/avg/max) = 11.80 | 11.84 | 11.88 Mbytes
Step PotEng Temp Press KinEng Lx Ly Lz Pzz S/CPU Density 
 1246001    2861.9513    369.77725    173.82076    6841.5772    244.68819    244.68819    244.68819    178.48569            0  0.078957484 
 1254001    737.81971      372.547  -0.10658728    6892.8229    244.68819    244.68819    244.68819  -0.76740991    885.35081  0.078957484 
Loop time of 9.03608 on 6 procs for 8000 steps with 6208 atoms

Performance: 764.934 ns/day, 0.031 hours/ns, 885.340 timesteps/s
99.6% CPU use with 6 MPI tasks x no OpenMP threads

MPI task timing breakdown:
Section |  min time  |  avg time  |  max time  |%varavg| %total
---------------------------------------------------------------
Pair    | 1.6552     | 3.8143     | 6.5145     |  77.1 | 42.21
Bond    | 0.05507    | 0.091099   | 0.13516    |   8.2 |  1.01
Neigh   | 0.88748    | 0.89055    | 0.89899    |   0.5 |  9.86
Comm    | 0.80245    | 3.7141     | 6.036      |  84.2 | 41.10
Output  | 4.1962e-05 | 8.9606e-05 | 0.00018406 |   0.0 |  0.00
Modify  | 0.26654    | 0.45188    | 0.66742    |  18.4 |  5.00
Other   |            | 0.07408    |            |       |  0.82

Nlocal:        1034.67 ave        1559 max         607 min
Histogram: 1 0 0 2 2 0 0 0 0 1
Nghost:        3381.33 ave        4396 max        2789 min
Histogram: 1 1 2 0 0 1 0 0 0 1
Neighs:        23789.7 ave       40779 max       10181 min
Histogram: 1 0 0 2 2 0 0 0 0 1

Total # of neighbors = 142738
Ave neighs/atom = 22.992590
Ave special neighs/atom = 1.9793814
Neighbor list builds = 356
Dangerous builds = 0

if "${myDensity} > 1.0" then "jump SELF break"

next a
jump SELF loop
variable a loop 1000
change_box all x scale 0.95 y scale 0.95 z scale 0.95 remap
Changing box ...
  orthogonal box = (483.77311 477.65590 477.65590) to (716.22689 722.34410 722.34410)
  orthogonal box = (483.77311 483.77311 477.65590) to (716.22689 716.22689 722.34410)
  orthogonal box = (483.77311 483.77311 483.77311) to (716.22689 716.22689 716.22689)
run 8000
Per MPI rank memory allocation (min/avg/max) = 11.81 | 11.84 | 11.88 Mbytes
Step PotEng Temp Press KinEng Lx Ly Lz Pzz S/CPU Density 
 1254001    2827.7131      372.547    201.30926    6892.8229    232.45378    232.45378    232.45378    203.31837            0  0.092092123 
 1262001    541.15983    371.11569   -1.4711932    6866.3409    232.45378    232.45378    232.45378   -1.1567759    837.47148  0.092092123 
Loop time of 9.55298 on 6 procs for 8000 steps with 6208 atoms

Performance: 723.544 ns/day, 0.033 hours/ns, 837.435 timesteps/s
99.5% CPU use with 6 MPI tasks x no OpenMP threads

MPI task timing breakdown:
Section |  min time  |  avg time  |  max time  |%varavg| %total
---------------------------------------------------------------
Pair    | 2.058      | 4.0827     | 6.9611     |  72.5 | 42.74
Bond    | 0.056313   | 0.091009   | 0.13622    |   7.9 |  0.95
Neigh   | 0.87361    | 0.87606    | 0.88021    |   0.2 |  9.17
Comm    | 0.8799     | 3.9724     | 6.1602     |  79.1 | 41.58
Output  | 4.2915e-05 | 0.00014142 | 0.00048995 |   0.0 |  0.00
Modify  | 0.27043    | 0.45151    | 0.67104    |  17.6 |  4.73
Other   |            | 0.07915    |            |       |  0.83

Nlocal:        1034.67 ave        1515 max         617 min
Histogram: 1 0 0 2 1 0 1 0 0 1
Nghost:        3502.33 ave        4614 max        2892 min
Histogram: 2 1 0 1 0 1 0 0 0 1
Neighs:        26113.0 ave       42171 max       13639 min
Histogram: 1 0 0 3 0 1 0 0 0 1

Total # of neighbors = 156678
Ave neighs/atom = 25.238080
Ave special neighs/atom = 1.9793814
Neighbor list builds = 343
Dangerous builds = 0

if "${myDensity} > 1.0" then "jump SELF break"

next a
jump SELF loop
variable a loop 1000
change_box all x scale 0.95 y scale 0.95 z scale 0.95 remap
Changing box ...
  orthogonal box = (489.58445 483.77311 483.77311) to (710.41555 716.22689 716.22689)
  orthogonal box = (489.58445 489.58445 483.77311) to (710.41555 710.41555 716.22689)
  orthogonal box = (489.58445 489.58445 489.58445) to (710.41555 710.41555 710.41555)
run 8000
Per MPI rank memory allocation (min/avg/max) = 11.81 | 11.85 | 11.89 Mbytes
Step PotEng Temp Press KinEng Lx Ly Lz Pzz S/CPU Density 
 1262001    2598.7183    371.11569    233.63205    6866.3409    220.83109    220.83109    220.83109    231.13894            0   0.10741172 
 1270001    599.82711    379.03835    1.4010184    7012.9251    220.83109    220.83109    220.83109  0.012784193    852.69828   0.10741172 
Loop time of 9.38208 on 6 procs for 8000 steps with 6208 atoms

Performance: 736.723 ns/day, 0.033 hours/ns, 852.689 timesteps/s
99.5% CPU use with 6 MPI tasks x no OpenMP threads

MPI task timing breakdown:
Section |  min time  |  avg time  |  max time  |%varavg| %total
---------------------------------------------------------------
Pair    | 2.3046     | 4.2636     | 6.7662     |  64.9 | 45.44
Bond    | 0.060052   | 0.091522   | 0.12983    |   7.0 |  0.98
Neigh   | 0.84501    | 0.84679    | 0.84968    |   0.2 |  9.03
Comm    | 0.97089    | 3.6541     | 5.7626     |  75.3 | 38.95
Output  | 4.7922e-05 | 9.1155e-05 | 0.00017405 |   0.0 |  0.00
Modify  | 0.28733    | 0.45271    | 0.63887    |  15.8 |  4.83
Other   |            | 0.07328    |            |       |  0.78

Nlocal:        1034.67 ave        1402 max         720 min
Histogram: 1 0 1 1 1 0 1 0 0 1
Nghost:        3738.67 ave        4856 max        3005 min
Histogram: 1 1 1 1 0 0 0 1 0 1
Neighs:        27375.7 ave       39388 max       16173 min
Histogram: 1 0 1 0 0 3 0 0 0 1

Total # of neighbors = 164254
Ave neighs/atom = 26.458441
Ave special neighs/atom = 1.9793814
Neighbor list builds = 340
Dangerous builds = 0

if "${myDensity} > 1.0" then "jump SELF break"

next a
jump SELF loop
variable a loop 1000
change_box all x scale 0.95 y scale 0.95 z scale 0.95 remap
Changing box ...
  orthogonal box = (495.10523 489.58445 489.58445) to (704.89477 710.41555 710.41555)
  orthogonal box = (495.10523 495.10523 489.58445) to (704.89477 704.89477 710.41555)
  orthogonal box = (495.10523 495.10523 495.10523) to (704.89477 704.89477 704.89477)
run 8000
Per MPI rank memory allocation (min/avg/max) = 11.82 | 11.85 | 11.89 Mbytes
Step PotEng Temp Press KinEng Lx Ly Lz Pzz S/CPU Density 
 1270001    2729.0641    379.03835    277.41564    7012.9251    209.78954    209.78954    209.78954    276.10735            0   0.12527974 
 1278001     511.5324    367.99327    1.8203327    6808.5702    209.78954    209.78954    209.78954   -0.8673659    839.80518   0.12527974 
Loop time of 9.5269 on 6 procs for 8000 steps with 6208 atoms

Performance: 725.525 ns/day, 0.033 hours/ns, 839.727 timesteps/s
99.5% CPU use with 6 MPI tasks x no OpenMP threads

MPI task timing breakdown:
Section |  min time  |  avg time  |  max time  |%varavg| %total
---------------------------------------------------------------
Pair    | 3.139      | 4.6691     | 6.6884     |  58.9 | 49.01
Bond    | 0.06622    | 0.092171   | 0.12508    |   6.5 |  0.97
Neigh   | 0.91631    | 0.92052    | 0.92439    |   0.3 |  9.66
Comm    | 1.1504     | 3.3158     | 4.9685     |  74.8 | 34.80
Output  | 4.2915e-05 | 0.00021374 | 0.00095582 |   0.0 |  0.00
Modify  | 0.31761    | 0.4546     | 0.61219    |  14.4 |  4.77
Other   |            | 0.0745     |            |       |  0.78

Nlocal:        1034.67 ave        1384 max         793 min
Histogram: 3 0 0 0 1 0 0 0 0 2
Nghost:        4082.33 ave        5067 max        3412 min
Histogram: 1 2 0 1 0 0 0 1 0 1
Neighs:        29412.2 ave       42537 max       18286 min
Histogram: 1 0 2 1 0 0 0 0 1 1

Total # of neighbors = 176473
Ave neighs/atom = 28.426707
Ave special neighs/atom = 1.9793814
Neighbor list builds = 343
Dangerous builds = 0

if "${myDensity} > 1.0" then "jump SELF break"

next a
jump SELF loop
variable a loop 1000
change_box all x scale 0.95 y scale 0.95 z scale 0.95 remap
Changing box ...
  orthogonal box = (500.34997 495.10523 495.10523) to (699.65003 704.89477 704.89477)
  orthogonal box = (500.34997 500.34997 495.10523) to (699.65003 699.65003 704.89477)
  orthogonal box = (500.34997 500.34997 500.34997) to (699.65003 699.65003 699.65003)
run 8000
Per MPI rank memory allocation (min/avg/max) = 11.82 | 11.85 | 11.90 Mbytes
Step PotEng Temp Press KinEng Lx Ly Lz Pzz S/CPU Density 
 1278001    2674.9916    367.99327     325.0928    6808.5702    199.30006    199.30006    199.30006    327.52143            0   0.14612013 
 1286001    483.56382    374.52679    -3.086381    6929.4527    199.30006    199.30006    199.30006   -2.5388865    860.37623   0.14612013 
Loop time of 9.29871 on 6 procs for 8000 steps with 6208 atoms

Performance: 743.329 ns/day, 0.032 hours/ns, 860.334 timesteps/s
99.6% CPU use with 6 MPI tasks x no OpenMP threads

MPI task timing breakdown:
Section |  min time  |  avg time  |  max time  |%varavg| %total
---------------------------------------------------------------
Pair    | 3.1618     | 4.7918     | 6.5725     |  56.1 | 51.53
Bond    | 0.068394   | 0.091857   | 0.1171     |   6.1 |  0.99
Neigh   | 0.92075    | 0.92322    | 0.92604    |   0.2 |  9.93
Comm    | 1.0936     | 2.9759     | 4.7028     |  75.8 | 32.00
Output  | 4.3154e-05 | 0.00013657 | 0.00052595 |   0.0 |  0.00
Modify  | 0.34632    | 0.45161    | 0.57225    |  13.3 |  4.86
Other   |            | 0.06421    |            |       |  0.69

Nlocal:        1034.67 ave        1297 max         743 min
Histogram: 1 0 1 1 1 0 0 0 0 2
Nghost:        4340.17 ave        5175 max        3872 min
Histogram: 2 2 0 0 0 0 0 1 0 1
Neighs:        31363.0 ave       42710 max       21708 min
Histogram: 2 0 1 0 1 0 0 0 0 2

Total # of neighbors = 188178
Ave neighs/atom = 30.312178
Ave special neighs/atom = 1.9793814
Neighbor list builds = 343
Dangerous builds = 0

if "${myDensity} > 1.0" then "jump SELF break"

next a
jump SELF loop
variable a loop 1000
change_box all x scale 0.95 y scale 0.95 z scale 0.95 remap
Changing box ...
  orthogonal box = (505.33247 500.34997 500.34997) to (694.66753 699.65003 699.65003)
  orthogonal box = (505.33247 505.33247 500.34997) to (694.66753 694.66753 699.65003)
  orthogonal box = (505.33247 505.33247 505.33247) to (694.66753 694.66753 694.66753)
run 8000
Per MPI rank memory allocation (min/avg/max) = 11.82 | 11.85 | 11.90 Mbytes
Step PotEng Temp Press KinEng Lx Ly Lz Pzz S/CPU Density 
 1286001    2532.1469    374.52679    371.64497    6929.4527    189.33506    189.33506    189.33506    368.95289            0   0.17042732 
 1294001    464.17992    369.36831   -4.3279518    6834.0111    189.33506    189.33506    189.33506   -10.344516    718.23072   0.17042732 
Loop time of 11.141 on 6 procs for 8000 steps with 6208 atoms

Performance: 620.409 ns/day, 0.039 hours/ns, 718.066 timesteps/s
99.5% CPU use with 6 MPI tasks x no OpenMP threads

MPI task timing breakdown:
Section |  min time  |  avg time  |  max time  |%varavg| %total
---------------------------------------------------------------
Pair    | 3.2951     | 5.1774     | 8.1174     |  68.6 | 46.47
Bond    | 0.069825   | 0.092651   | 0.12614    |   6.6 |  0.83
Neigh   | 1.098      | 1.1025     | 1.1085     |   0.4 |  9.90
Comm    | 1.1476     | 4.2395     | 6.2253     |  80.0 | 38.05
Output  | 4.6015e-05 | 0.00049535 | 0.0026231  |   0.0 |  0.00
Modify  | 0.34751    | 0.4516     | 0.61344    |  14.0 |  4.05
Other   |            | 0.07681    |            |       |  0.69

Nlocal:        1034.67 ave        1422 max         748 min
Histogram: 1 1 0 1 1 1 0 0 0 1
Nghost:        4852.33 ave        5519 max        4471 min
Histogram: 2 0 1 1 0 1 0 0 0 1
Neighs:        32661.3 ave       51472 max       18286 min
Histogram: 1 0 1 1 1 1 0 0 0 1

Total # of neighbors = 195968
Ave neighs/atom = 31.567010
Ave special neighs/atom = 1.9793814
Neighbor list builds = 346
Dangerous builds = 0

if "${myDensity} > 1.0" then "jump SELF break"

next a
jump SELF loop
variable a loop 1000
change_box all x scale 0.95 y scale 0.95 z scale 0.95 remap
Changing box ...
  orthogonal box = (510.06585 505.33247 505.33247) to (689.93415 694.66753 694.66753)
  orthogonal box = (510.06585 510.06585 505.33247) to (689.93415 689.93415 694.66753)
  orthogonal box = (510.06585 510.06585 510.06585) to (689.93415 689.93415 689.93415)
run 8000
Per MPI rank memory allocation (min/avg/max) = 11.83 | 11.86 | 11.90 Mbytes
Step PotEng Temp Press KinEng Lx Ly Lz Pzz S/CPU Density 
 1294001    2553.6442    369.36831    439.75154    6834.0111     179.8683     179.8683     179.8683    432.37426            0   0.19877804 
 1302001     389.5968    371.59593    5.7885609    6875.2262     179.8683     179.8683     179.8683    16.474187    722.12021   0.19877804 
Loop time of 11.0794 on 6 procs for 8000 steps with 6208 atoms

Performance: 623.863 ns/day, 0.038 hours/ns, 722.063 timesteps/s
99.4% CPU use with 6 MPI tasks x no OpenMP threads

MPI task timing breakdown:
Section |  min time  |  avg time  |  max time  |%varavg| %total
---------------------------------------------------------------
Pair    | 3.408      | 5.5203     | 7.9536     |  58.3 | 49.83
Bond    | 0.068213   | 0.093006   | 0.11791    |   5.2 |  0.84
Neigh   | 1.161      | 1.164      | 1.1681     |   0.2 | 10.51
Comm    | 1.2287     | 3.7757     | 6.0024     |  74.2 | 34.08
Output  | 0.0036111  | 0.0039473  | 0.0048409  |   0.7 |  0.04
Modify  | 0.33925    | 0.45424    | 0.57612    |  11.2 |  4.10
Other   |            | 0.06816    |            |       |  0.62

Nlocal:        1034.67 ave        1291 max         789 min
Histogram: 1 0 1 1 1 0 0 0 1 1
Nghost:        5167.33 ave        5803 max        4612 min
Histogram: 1 1 1 0 1 0 0 0 0 2
Neighs:        35140.7 ave       48400 max       21959 min
Histogram: 1 0 0 2 0 1 0 1 0 1

Total # of neighbors = 210844
Ave neighs/atom = 33.963273
Ave special neighs/atom = 1.9793814
Neighbor list builds = 352
Dangerous builds = 0

if "${myDensity} > 1.0" then "jump SELF break"

next a
jump SELF loop
variable a loop 1000
change_box all x scale 0.95 y scale 0.95 z scale 0.95 remap
Changing box ...
  orthogonal box = (514.56256 510.06585 510.06585) to (685.43744 689.93415 689.93415)
  orthogonal box = (514.56256 514.56256 510.06585) to (685.43744 685.43744 689.93415)
  orthogonal box = (514.56256 514.56256 514.56256) to (685.43744 685.43744 685.43744)
run 8000
Per MPI rank memory allocation (min/avg/max) = 11.84 | 11.87 | 11.91 Mbytes
Step PotEng Temp Press KinEng Lx Ly Lz Pzz S/CPU Density 
 1302001    2630.3037    371.59593      528.823    6875.2262    170.87489    170.87489    170.87489    544.95895            0   0.23184492 
 1310001    210.32444    366.75288   -0.9206312    6785.6208    170.87489    170.87489    170.87489   -7.8393904    770.55161   0.23184492 
Loop time of 10.3823 on 6 procs for 8000 steps with 6208 atoms

Performance: 665.749 ns/day, 0.036 hours/ns, 770.542 timesteps/s
99.5% CPU use with 6 MPI tasks x no OpenMP threads

MPI task timing breakdown:
Section |  min time  |  avg time  |  max time  |%varavg| %total
---------------------------------------------------------------
Pair    | 4.2948     | 5.8611     | 7.0818     |  49.1 | 56.45
Bond    | 0.075934   | 0.093699   | 0.10658    |   4.0 |  0.90
Neigh   | 1.0518     | 1.0532     | 1.0552     |   0.1 | 10.14
Comm    | 1.5807     | 2.8567     | 4.5028     |  73.6 | 27.52
Output  | 4.4823e-05 | 8.3447e-05 | 0.00016308 |   0.0 |  0.00
Modify  | 0.3733     | 0.45618    | 0.51981    |   9.3 |  4.39
Other   |            | 0.06132    |            |       |  0.59

Nlocal:        1034.67 ave        1248 max         735 min
Histogram: 1 0 1 0 0 1 0 1 0 2
Nghost:        5639.67 ave        5883 max        5280 min
Histogram: 1 0 0 0 0 2 1 0 1 1
Neighs:        37441.2 ave       50646 max       23160 min
Histogram: 1 1 0 0 1 0 1 0 1 1

Total # of neighbors = 224647
Ave neighs/atom = 36.186695
Ave special neighs/atom = 1.9793814
Neighbor list builds = 340
Dangerous builds = 0

if "${myDensity} > 1.0" then "jump SELF break"

next a
jump SELF loop
variable a loop 1000
change_box all x scale 0.95 y scale 0.95 z scale 0.95 remap
Changing box ...
  orthogonal box = (518.83443 514.56256 514.56256) to (681.16557 685.43744 685.43744)
  orthogonal box = (518.83443 518.83443 514.56256) to (681.16557 681.16557 685.43744)
  orthogonal box = (518.83443 518.83443 518.83443) to (681.16557 681.16557 681.16557)
run 8000
Per MPI rank memory allocation (min/avg/max) = 11.85 | 11.87 | 11.91 Mbytes
Step PotEng Temp Press KinEng Lx Ly Lz Pzz S/CPU Density 
 1310001    2345.1065    366.75288    601.06361    6785.6208    162.33115    162.33115    162.33115    606.02152            0   0.27041251 
 1318001    275.97575     369.0983    6.3993725    6829.0155    162.33115    162.33115    162.33115    20.106509    674.17615   0.27041251 
Loop time of 11.8675 on 6 procs for 8000 steps with 6208 atoms

Performance: 582.430 ns/day, 0.041 hours/ns, 674.108 timesteps/s
99.5% CPU use with 6 MPI tasks x no OpenMP threads

MPI task timing breakdown:
Section |  min time  |  avg time  |  max time  |%varavg| %total
---------------------------------------------------------------
Pair    | 3.5425     | 6.3305     | 8.7581     |  70.7 | 53.34
Bond    | 0.067773   | 0.095246   | 0.11937    |   5.7 |  0.80
Neigh   | 1.2002     | 1.2012     | 1.2023     |   0.1 | 10.12
Comm    | 1.1648     | 3.7141     | 6.6437     |  96.6 | 31.30
Output  | 4.6015e-05 | 0.00025495 | 0.0012269  |   0.0 |  0.00
Modify  | 0.31641    | 0.45621    | 0.58285    |  12.9 |  3.84
Other   |            | 0.07005    |            |       |  0.59

Nlocal:        1034.67 ave        1253 max         802 min
Histogram: 1 1 0 0 1 1 0 0 0 2
Nghost:        5921.17 ave        6254 max        5579 min
Histogram: 1 0 0 1 0 2 1 0 0 1
Neighs:        40399.3 ave       55603 max       25608 min
Histogram: 2 0 0 0 1 1 0 0 1 1

Total # of neighbors = 242396
Ave neighs/atom = 39.045747
Ave special neighs/atom = 1.9793814
Neighbor list builds = 337
Dangerous builds = 0

if "${myDensity} > 1.0" then "jump SELF break"

next a
jump SELF loop
variable a loop 1000
change_box all x scale 0.95 y scale 0.95 z scale 0.95 remap
Changing box ...
  orthogonal box = (522.89271 518.83443 518.83443) to (677.10729 681.16557 681.16557)
  orthogonal box = (522.89271 522.89271 518.83443) to (677.10729 677.10729 681.16557)
  orthogonal box = (522.89271 522.89271 522.89271) to (677.10729 677.10729 677.10729)
run 8000
Per MPI rank memory allocation (min/avg/max) = 11.85 | 11.88 | 11.91 Mbytes
Step PotEng Temp Press KinEng Lx Ly Lz Pzz S/CPU Density 
 1318001    2512.0747     369.0983    719.45749    6829.0155    154.21459    154.21459    154.21459    742.82817            0   0.31539584 
 1326001     148.8629    374.60959    -6.063126    6930.9847    154.21459    154.21459    154.21459    3.4213102    679.44724   0.31539584 
Loop time of 11.7758 on 6 procs for 8000 steps with 6208 atoms

Performance: 586.968 ns/day, 0.041 hours/ns, 679.361 timesteps/s
99.4% CPU use with 6 MPI tasks x no OpenMP threads

MPI task timing breakdown:
Section |  min time  |  avg time  |  max time  |%varavg| %total
---------------------------------------------------------------
Pair    | 4.9882     | 6.7178     | 8.3993     |  46.9 | 57.05
Bond    | 0.080778   | 0.094852   | 0.10726    |   3.3 |  0.81
Neigh   | 1.2058     | 1.2072     | 1.2091     |   0.1 | 10.25
Comm    | 1.4838     | 3.2179     | 5.0143     |  70.4 | 27.33
Output  | 4.4107e-05 | 0.00030434 | 0.0015459  |   0.0 |  0.00
Modify  | 0.37491    | 0.4597     | 0.53382    |   8.2 |  3.90
Other   |            | 0.07806    |            |       |  0.66

Nlocal:        1034.67 ave        1200 max         872 min
Histogram: 1 0 0 1 1 1 1 0 0 1
Nghost:        6738.00 ave        6969 max        6442 min
Histogram: 2 0 0 0 0 1 0 0 1 2
Neighs:        41798.8 ave       52888 max       30803 min
Histogram: 1 0 0 1 1 0 2 0 0 1

Total # of neighbors = 250793
Ave neighs/atom = 40.398357
Ave special neighs/atom = 1.9793814
Neighbor list builds = 343
Dangerous builds = 0

if "${myDensity} > 1.0" then "jump SELF break"

next a
jump SELF loop
variable a loop 1000
change_box all x scale 0.95 y scale 0.95 z scale 0.95 remap
Changing box ...
  orthogonal box = (526.74807 522.89271 522.89271) to (673.25193 677.10729 677.10729)
  orthogonal box = (526.74807 526.74807 522.89271) to (673.25193 673.25193 677.10729)
  orthogonal box = (526.74807 526.74807 526.74807) to (673.25193 673.25193 673.25193)
run 8000
Per MPI rank memory allocation (min/avg/max) = 11.87 | 11.89 | 11.92 Mbytes
Step PotEng Temp Press KinEng Lx Ly Lz Pzz S/CPU Density 
 1326001    2250.0169    374.60959    819.13379    6930.9847    146.50386    146.50386    146.50386    832.39836            0   0.36786218 
 1334001    24.497356    376.37264   -6.1115988    6963.6044    146.50386    146.50386    146.50386  -0.21119184    624.38858   0.36786218 
Loop time of 12.813 on 6 procs for 8000 steps with 6208 atoms

Performance: 539.453 ns/day, 0.044 hours/ns, 624.367 timesteps/s
98.3% CPU use with 6 MPI tasks x no OpenMP threads

MPI task timing breakdown:
Section |  min time  |  avg time  |  max time  |%varavg| %total
---------------------------------------------------------------
Pair    | 6.0011     | 7.3446     | 9.1082     |  39.6 | 57.32
Bond    | 0.082313   | 0.095361   | 0.10699    |   2.6 |  0.74
Neigh   | 1.3018     | 1.3044     | 1.3074     |   0.2 | 10.18
Comm    | 1.73       | 3.4879     | 4.8705     |  57.7 | 27.22
Output  | 4.6015e-05 | 0.00012815 | 0.00049496 |   0.0 |  0.00
Modify  | 0.40437    | 0.45938    | 0.5177     |   5.9 |  3.59
Other   |            | 0.1212     |            |       |  0.95

Nlocal:        1034.67 ave        1165 max         880 min
Histogram: 2 0 0 1 0 0 0 0 1 2
Nghost:        7299.33 ave        7506 max        7013 min
Histogram: 1 0 0 0 1 2 0 0 1 1
Neighs:        46691.0 ave       55169 max       35269 min
Histogram: 1 1 0 0 1 0 0 0 0 3

Total # of neighbors = 280146
Ave neighs/atom = 45.126611
Ave special neighs/atom = 1.9793814
Neighbor list builds = 351
Dangerous builds = 0

if "${myDensity} > 1.0" then "jump SELF break"

next a
jump SELF loop
variable a loop 1000
change_box all x scale 0.95 y scale 0.95 z scale 0.95 remap
Changing box ...
  orthogonal box = (530.41067 526.74807 526.74807) to (669.58933 673.25193 673.25193)
  orthogonal box = (530.41067 530.41067 526.74807) to (669.58933 669.58933 673.25193)
  orthogonal box = (530.41067 530.41067 530.41067) to (669.58933 669.58933 669.58933)
run 8000
Per MPI rank memory allocation (min/avg/max) = 11.87 | 11.89 | 11.93 Mbytes
Step PotEng Temp Press KinEng Lx Ly Lz Pzz S/CPU Density 
 1334001    2129.7934    376.37264    956.76378    6963.6044    139.17867    139.17867    139.17867    957.58509            0   0.42905634 
 1342001   -38.817599    371.32266    -1.970792    6870.1703    139.17867    139.17867    139.17867   -16.125232    588.80539   0.42905634 
Loop time of 13.5869 on 6 procs for 8000 steps with 6208 atoms

Performance: 508.724 ns/day, 0.047 hours/ns, 588.801 timesteps/s
97.5% CPU use with 6 MPI tasks x no OpenMP threads

MPI task timing breakdown:
Section |  min time  |  avg time  |  max time  |%varavg| %total
---------------------------------------------------------------
Pair    | 7.6269     | 8.2163     | 9.662      |  24.4 | 60.47
Bond    | 0.09242    | 0.098556   | 0.11008    |   1.9 |  0.73
Neigh   | 1.3932     | 1.3941     | 1.3954     |   0.1 | 10.26
Comm    | 1.8053     | 3.2667     | 3.8613     |  39.2 | 24.04
Output  | 4.0054e-05 | 5.881e-05  | 0.00012803 |   0.0 |  0.00
Modify  | 0.42718    | 0.45867    | 0.51166    |   4.0 |  3.38
Other   |            | 0.1526     |            |       |  1.12

Nlocal:        1034.67 ave        1083 max         952 min
Histogram: 1 0 0 0 0 1 1 1 1 1
Nghost:        7849.83 ave        8051 max        7589 min
Histogram: 1 0 0 1 0 1 1 1 0 1
Neighs:        51988.2 ave       57197 max       44866 min
Histogram: 1 0 1 0 0 1 0 0 2 1

Total # of neighbors = 311929
Ave neighs/atom = 50.246295
Ave special neighs/atom = 1.9793814
Neighbor list builds = 341
Dangerous builds = 0

if "${myDensity} > 1.0" then "jump SELF break"

next a
jump SELF loop
variable a loop 1000
change_box all x scale 0.95 y scale 0.95 z scale 0.95 remap
Changing box ...
  orthogonal box = (533.89013 530.41067 530.41067) to (666.10987 669.58933 669.58933)
  orthogonal box = (533.89013 533.89013 530.41067) to (666.10987 666.10987 669.58933)
  orthogonal box = (533.89013 533.89013 533.89013) to (666.10987 666.10987 666.10987)
run 8000
Per MPI rank memory allocation (min/avg/max) = 11.88 | 11.90 | 11.93 Mbytes
Step PotEng Temp Press KinEng Lx Ly Lz Pzz S/CPU Density 
 1342001    2178.2142    371.32266    1157.0463    6870.1703    132.21973    132.21973    132.21973    1152.1758            0    0.5004302 
 1350001   -293.41084    365.85572   -19.044981    6769.0216    132.21973    132.21973    132.21973   -19.095231    526.56261    0.5004302 
Loop time of 15.194 on 6 procs for 8000 steps with 6208 atoms

Performance: 454.916 ns/day, 0.053 hours/ns, 526.523 timesteps/s
96.3% CPU use with 6 MPI tasks x no OpenMP threads

MPI task timing breakdown:
Section |  min time  |  avg time  |  max time  |%varavg| %total
---------------------------------------------------------------
Pair    | 7.3543     | 9.3747     | 10.86      |  41.9 | 61.70
Bond    | 0.08679    | 0.098975   | 0.10764    |   2.4 |  0.65
Neigh   | 1.3959     | 1.3969     | 1.3982     |   0.1 |  9.19
Comm    | 2.1346     | 3.6465     | 5.7334     |  69.6 | 24.00
Output  | 5.0068e-05 | 0.00024569 | 0.001189   |   0.0 |  0.00
Modify  | 0.39902    | 0.45818    | 0.49824    |   5.7 |  3.02
Other   |            | 0.2186     |            |       |  1.44

Nlocal:        1034.67 ave        1101 max         935 min
Histogram: 1 0 0 0 2 0 0 1 0 2
Nghost:        8592.50 ave        8676 max        8536 min
Histogram: 1 0 2 0 1 1 0 0 0 1
Neighs:        59428.3 ave       66173 max       50336 min
Histogram: 1 0 0 1 1 0 1 0 0 2

Total # of neighbors = 356570
Ave neighs/atom = 57.437178
Ave special neighs/atom = 1.9793814
Neighbor list builds = 342
Dangerous builds = 0

if "${myDensity} > 1.0" then "jump SELF break"

next a
jump SELF loop
variable a loop 1000
change_box all x scale 0.95 y scale 0.95 z scale 0.95 remap
Changing box ...
  orthogonal box = (537.19563 533.89013 533.89013) to (662.80437 666.10987 666.10987)
  orthogonal box = (537.19563 537.19563 533.89013) to (662.80437 662.80437 666.10987)
  orthogonal box = (537.19563 537.19563 537.19563) to (662.80437 662.80437 662.80437)
run 8000
Per MPI rank memory allocation (min/avg/max) = 11.89 | 11.91 | 11.94 Mbytes
Step PotEng Temp Press KinEng Lx Ly Lz Pzz S/CPU Density 
 1350001    1857.3795    365.85572    1332.2465    6769.0216    125.60875    125.60875    125.60875    1350.3672            0   0.58367716 
 1358001   -409.16633    372.48656    13.063347    6891.7045    125.60875    125.60875    125.60875    17.400535    505.42373   0.58367716 
Loop time of 15.8303 on 6 procs for 8000 steps with 6208 atoms

Performance: 436.632 ns/day, 0.055 hours/ns, 505.361 timesteps/s
95.9% CPU use with 6 MPI tasks x no OpenMP threads

MPI task timing breakdown:
Section |  min time  |  avg time  |  max time  |%varavg| %total
---------------------------------------------------------------
Pair    | 9.344      | 10.568     | 11.306     |  19.8 | 66.76
Bond    | 0.091343   | 0.0973     | 0.10377    |   1.3 |  0.61
Neigh   | 1.5176     | 1.5185     | 1.52       |   0.1 |  9.59
Comm    | 2.164      | 2.9524     | 4.2198     |  39.5 | 18.65
Output  | 3.8862e-05 | 0.0003767  | 0.002013   |   0.0 |  0.00
Modify  | 0.42481    | 0.45897    | 0.47864    |   2.9 |  2.90
Other   |            | 0.2352     |            |       |  1.49

Nlocal:        1034.67 ave        1123 max         997 min
Histogram: 2 1 1 1 0 0 0 0 0 1
Nghost:        9528.50 ave        9660 max        9449 min
Histogram: 2 1 0 0 1 1 0 0 0 1
Neighs:        67222.5 ave       75459 max       61224 min
Histogram: 1 0 1 1 2 0 0 0 0 1

Total # of neighbors = 403335
Ave neighs/atom = 64.970200
Ave special neighs/atom = 1.9793814
Neighbor list builds = 348
Dangerous builds = 0

if "${myDensity} > 1.0" then "jump SELF break"

next a
jump SELF loop
variable a loop 1000
change_box all x scale 0.95 y scale 0.95 z scale 0.95 remap
Changing box ...
  orthogonal box = (540.33585 537.19563 537.19563) to (659.66415 662.80437 662.80437)
  orthogonal box = (540.33585 540.33585 537.19563) to (659.66415 659.66415 662.80437)
  orthogonal box = (540.33585 540.33585 540.33585) to (659.66415 659.66415 659.66415)
run 8000
Per MPI rank memory allocation (min/avg/max) = 11.90 | 11.92 | 11.96 Mbytes
Step PotEng Temp Press KinEng Lx Ly Lz Pzz S/CPU Density 
 1358001    1941.3814    372.48656    1629.2667    6891.7045    119.32831    119.32831    119.32831    1649.8367            0   0.68077231 
 1366001   -793.74108    374.70407    28.682078    6932.7328    119.32831    119.32831    119.32831   -7.5685081    461.72494   0.68077231 
Loop time of 17.3273 on 6 procs for 8000 steps with 6208 atoms

Performance: 398.907 ns/day, 0.060 hours/ns, 461.698 timesteps/s
95.6% CPU use with 6 MPI tasks x no OpenMP threads

MPI task timing breakdown:
Section |  min time  |  avg time  |  max time  |%varavg| %total
---------------------------------------------------------------
Pair    | 11.489     | 12.115     | 12.473     |   9.3 | 69.92
Bond    | 0.094753   | 0.097982   | 0.10241    |   0.9 |  0.57
Neigh   | 1.6611     | 1.662      | 1.6628     |   0.0 |  9.59
Comm    | 2.419      | 2.7427     | 3.3925     |  19.7 | 15.83
Output  | 5.3167e-05 | 0.00021871 | 0.001018   |   0.0 |  0.00
Modify  | 0.44493    | 0.45905    | 0.47053    |   1.2 |  2.65
Other   |            | 0.2506     |            |       |  1.45

Nlocal:        1034.67 ave        1095 max         980 min
Histogram: 2 0 1 0 0 1 0 0 0 2
Nghost:        10439.2 ave       10514 max       10364 min
Histogram: 1 1 1 0 0 0 1 0 1 1
Neighs:        77690.2 ave       84667 max       71213 min
Histogram: 2 0 1 0 0 0 0 1 0 2

Total # of neighbors = 466141
Ave neighs/atom = 75.087146
Ave special neighs/atom = 1.9793814
Neighbor list builds = 346
Dangerous builds = 0

if "${myDensity} > 1.0" then "jump SELF break"

next a
jump SELF loop
variable a loop 1000
change_box all x scale 0.95 y scale 0.95 z scale 0.95 remap
Changing box ...
  orthogonal box = (543.31905 540.33585 540.33585) to (656.68095 659.66415 659.66415)
  orthogonal box = (543.31905 543.31905 540.33585) to (656.68095 656.68095 659.66415)
  orthogonal box = (543.31905 543.31905 543.31905) to (656.68095 656.68095 656.68095)
run 8000
Per MPI rank memory allocation (min/avg/max) = 11.91 | 12.00 | 12.30 Mbytes
Step PotEng Temp Press KinEng Lx Ly Lz Pzz S/CPU Density 
 1366001    1642.0985    374.70407    1945.6972    6932.7328    113.36189    113.36189    113.36189    1899.1417            0   0.79401931 
 1374001   -1298.7133    366.26441    16.940122     6776.583    113.36189    113.36189    113.36189     22.92473    400.53004   0.79401931 
Loop time of 19.974 on 6 procs for 8000 steps with 6208 atoms

Performance: 346.049 ns/day, 0.069 hours/ns, 400.520 timesteps/s
95.8% CPU use with 6 MPI tasks x no OpenMP threads

MPI task timing breakdown:
Section |  min time  |  avg time  |  max time  |%varavg| %total
---------------------------------------------------------------
Pair    | 13.839     | 14.151     | 14.591     |   8.0 | 70.85
Bond    | 0.09885    | 0.10291    | 0.10536    |   0.8 |  0.52
Neigh   | 1.985      | 1.9855     | 1.9866     |   0.0 |  9.94
Comm    | 2.5641     | 3.0069     | 3.3636     |  18.1 | 15.05
Output  | 4.4823e-05 | 0.00013574 | 0.00055504 |   0.0 |  0.00
Modify  | 0.44663    | 0.45953    | 0.4793     |   1.6 |  2.30
Other   |            | 0.2677     |            |       |  1.34

Nlocal:        1034.67 ave        1058 max        1011 min
Histogram: 1 1 1 0 0 0 1 0 0 2
Nghost:        11473.2 ave       11546 max       11381 min
Histogram: 1 1 0 1 0 0 0 0 1 2
Neighs:        90266.5 ave       94370 max       86893 min
Histogram: 2 0 0 1 1 0 0 0 0 2

Total # of neighbors = 541599
Ave neighs/atom = 87.242107
Ave special neighs/atom = 1.9793814
Neighbor list builds = 349
Dangerous builds = 0

if "${myDensity} > 1.0" then "jump SELF break"

next a
jump SELF loop
variable a loop 1000
change_box all x scale 0.95 y scale 0.95 z scale 0.95 remap
Changing box ...
  orthogonal box = (546.15310 543.31905 543.31905) to (653.84690 656.68095 656.68095)
  orthogonal box = (546.15310 546.15310 543.31905) to (653.84690 653.84690 656.68095)
  orthogonal box = (546.15310 546.15310 546.15310) to (653.84690 653.84690 653.84690)
run 8000
Per MPI rank memory allocation (min/avg/max) = 12.31 | 12.33 | 12.36 Mbytes
Step PotEng Temp Press KinEng Lx Ly Lz Pzz S/CPU Density 
 1374001    1212.4363    366.26441     2345.722     6776.583     107.6938     107.6938     107.6938    2380.9731            0   0.92610504 
 1382001   -1969.4224    373.77066    179.25274    6915.4628     107.6938     107.6938     107.6938    163.91883    356.92397   0.92610504 
Loop time of 22.4156 on 6 procs for 8000 steps with 6208 atoms

Performance: 308.356 ns/day, 0.078 hours/ns, 356.894 timesteps/s
96.1% CPU use with 6 MPI tasks x no OpenMP threads

MPI task timing breakdown:
Section |  min time  |  avg time  |  max time  |%varavg| %total
---------------------------------------------------------------
Pair    | 15.891     | 16.461     | 16.788     |   7.5 | 73.43
Bond    | 0.10066    | 0.10387    | 0.10572    |   0.6 |  0.46
Neigh   | 1.9911     | 1.9925     | 1.9938     |   0.1 |  8.89
Comm    | 2.7879     | 3.117      | 3.7197     |  17.7 | 13.91
Output  | 4.7922e-05 | 0.00036832 | 0.00194    |   0.0 |  0.00
Modify  | 0.44393    | 0.45956    | 0.47732    |   1.5 |  2.05
Other   |            | 0.2818     |            |       |  1.26

Nlocal:        1034.67 ave        1051 max        1012 min
Histogram: 1 0 0 1 0 1 0 1 1 1
Nghost:        12545.8 ave       12632 max       12439 min
Histogram: 1 0 1 1 0 0 0 1 0 2
Neighs:        105267.0 ave      107996 max      102751 min
Histogram: 2 0 0 0 1 1 0 1 0 1

Total # of neighbors = 631602
Ave neighs/atom = 101.74001
Ave special neighs/atom = 1.9793814
Neighbor list builds = 347
Dangerous builds = 0

if "${myDensity} > 1.0" then "jump SELF break"

next a
jump SELF loop
variable a loop 1000
change_box all x scale 0.95 y scale 0.95 z scale 0.95 remap
Changing box ...
  orthogonal box = (548.84545 546.15310 546.15310) to (651.15455 653.84690 653.84690)
  orthogonal box = (548.84545 548.84545 546.15310) to (651.15455 651.15455 653.84690)
  orthogonal box = (548.84545 548.84545 548.84545) to (651.15455 651.15455 651.15455)
run 8000
Per MPI rank memory allocation (min/avg/max) = 12.32 | 12.34 | 12.38 Mbytes
Step PotEng Temp Press KinEng Lx Ly Lz Pzz S/CPU Density 
 1382001    1228.1431    373.77066    3204.9655    6915.4628    102.30911    102.30911    102.30911    3236.5824            0    1.0801633 
 1390001   -2585.0747    382.50207    594.45919    7077.0104    102.30911    102.30911    102.30911    596.86552    308.66842    1.0801633 
Loop time of 25.9209 on 6 procs for 8000 steps with 6208 atoms

Performance: 266.657 ns/day, 0.090 hours/ns, 308.631 timesteps/s
96.3% CPU use with 6 MPI tasks x no OpenMP threads

MPI task timing breakdown:
Section |  min time  |  avg time  |  max time  |%varavg| %total
---------------------------------------------------------------
Pair    | 18.677     | 19.256     | 19.825     |  10.3 | 74.29
Bond    | 0.093934   | 0.099709   | 0.10715    |   1.6 |  0.38
Neigh   | 2.3964     | 2.398      | 2.4002     |   0.1 |  9.25
Comm    | 2.858      | 3.4096     | 4.0089     |  24.4 | 13.15
Output  | 4.6968e-05 | 0.00056708 | 0.00315    |   0.0 |  0.00
Modify  | 0.45065    | 0.4602     | 0.47686    |   1.4 |  1.78
Other   |            | 0.2971     |            |       |  1.15

Nlocal:        1034.67 ave        1056 max        1015 min
Histogram: 1 0 0 1 1 2 0 0 0 1
Nghost:        13763.5 ave       13788 max       13738 min
Histogram: 1 0 1 0 1 1 0 0 1 1
Neighs:        122858.0 ave      125387 max      119655 min
Histogram: 2 0 0 0 0 0 1 1 0 2

Total # of neighbors = 737151
Ave neighs/atom = 118.74211
Ave special neighs/atom = 1.9793814
Neighbor list builds = 349
Dangerous builds = 0

if "${myDensity} > 1.0" then "jump SELF break"
jump SELF break

####Replicate to form slab

replicate 1 1 7
Replicating atoms ...
  orthogonal box = (548.84545 548.84545 548.84545) to (651.15455 651.15455 1265.0092)
  1 by 1 by 6 MPI processor grid
  43456 atoms
  43008 bonds
Finding 1-2 1-3 1-4 neighbors ...
  special bond factors lj:    0        1        1       
  special bond factors coul:  0        1        1       
     2 = max # of 1-2 neighbors
     6 = max # of special neighbors
  special bonds CPU = 0.001 seconds
  replicate CPU = 0.005 seconds

run 1
Per MPI rank memory allocation (min/avg/max) = 26.63 | 26.66 | 26.69 Mbytes
Step PotEng Temp Press KinEng Lx Ly Lz Pzz S/CPU Density 
 1390001   -18095.523    382.44925    594.45919    49539.073    102.30911    102.30911    716.16376    596.86552            0    1.0801633 
 1390002   -18135.706    382.66821    592.40543    49567.435    102.30911    102.30911    716.16376    599.38179    46.240646    1.0801633 
Loop time of 0.0216651 on 6 procs for 1 steps with 43456 atoms

Performance: 39.880 ns/day, 0.602 hours/ns, 46.157 timesteps/s
96.7% CPU use with 6 MPI tasks x no OpenMP threads

MPI task timing breakdown:
Section |  min time  |  avg time  |  max time  |%varavg| %total
---------------------------------------------------------------
Pair    | 0.020092   | 0.020262   | 0.020451   |   0.1 | 93.52
Bond    | 0.00015593 | 0.00016745 | 0.00018001 |   0.0 |  0.77
Neigh   | 0          | 0          | 0          |   0.0 |  0.00
Comm    | 0.00043797 | 0.00060705 | 0.00078201 |   0.0 |  2.80
Output  | 8.2016e-05 | 0.00011988 | 0.00016904 |   0.0 |  0.55
Modify  | 0.00039816 | 0.00040205 | 0.00041103 |   0.0 |  1.86
Other   |            | 0.0001066  |            |       |  0.49

Nlocal:        7242.67 ave        7265 max        7229 min
Histogram: 1 1 0 2 0 1 0 0 0 1
Nghost:        29371.2 ave       29421 max       29300 min
Histogram: 1 0 0 0 1 1 1 0 0 2
Neighs:        860053.0 ave      867582 max      853127 min
Histogram: 1 1 1 0 0 0 0 2 0 1

Total # of neighbors = 5160316
Ave neighs/atom = 118.74807
Ave special neighs/atom = 1.9793814
Neighbor list builds = 0
Dangerous builds = 0

###Delete replicated atoms

group under molecule < 129
12416 atoms in group under
group over molecule  > 192
24832 atoms in group over
group replica union under over
37248 atoms in group replica
delete_atoms group replica
WARNING: Ignoring 'compress yes' for molecular system (../delete_atoms.cpp:125)
Deleted 37248 atoms, new total = 6208

###Run simulation

fix           fixcentro all recenter INIT INIT INIT
fix           fxbal  all balance 1000 1.05 rcb

compute densidad all chunk/atom bin/1d z lower 0.01 units reduced
fix 3 all ave/chunk 1000 70 100000 densidad density/mass file den-$d-$T.profile
fix 3 all ave/chunk 1000 70 100000 densidad density/mass file den-TIA_WT-$T.profile
fix 3 all ave/chunk 1000 70 100000 densidad density/mass file den-TIA_WT-365.profile

compute  rad all gyration
variable t equal step
variable r equal c_rad
fix      radfile all print 10000 "$t $r" file rad-$d-$T.dat screen no
fix      radfile all print 10000 "$t $r" file rad-TIA_WT-$T.dat screen no
fix      radfile all print 10000 "$t $r" file rad-TIA_WT-365.dat screen no

compute	msd all msd com yes
fix	msd all ave/time 1 1 10000 c_msd[4] file mds-$d-$T.dat
fix	msd all ave/time 1 1 10000 c_msd[4] file mds-TIA_WT-$T.dat
fix	msd all ave/time 1 1 10000 c_msd[4] file mds-TIA_WT-365.dat

run 10000000
Per MPI rank memory allocation (min/avg/max) = 28.88 | 29.11 | 29.99 Mbytes
Step PotEng Temp Press KinEng Lx Ly Lz Pzz S/CPU Density 
 1390002   -1662.6809    382.73205    76.590409    7081.2655    102.30911    102.30911    716.16376     78.04607            0   0.15430905 
 2000000   -60.551871    363.61731  -0.18648187    6727.6068    102.30911    102.30911    716.16376   0.43673561    647.89908   0.15430905 
 3000000   -22.908938    364.45106    6.0737176    6743.0327    102.30911    102.30911    716.16376    6.9496642    694.67178   0.15430905 
 4000000   -22.644375    364.00053    2.5220008     6734.697    102.30911    102.30911    716.16376   -2.1457864    716.40345   0.15430905 
 5000000   -117.12488    363.08259  -0.14026237    6717.7134    102.30911    102.30911    716.16376    6.1911622    702.25674   0.15430905 
 6000000    31.271708    362.73863   -3.8352741    6711.3495    102.30911    102.30911    716.16376   -3.2332557    694.59457   0.15430905 
 7000000    28.636091    361.00648    4.5540917    6679.3015    102.30911    102.30911    716.16376    5.6221449    690.63713   0.15430905 
 8000000   -101.88449    366.85665    5.8718448    6787.5406    102.30911    102.30911    716.16376    10.560636    717.74157   0.15430905 
 9000000   -122.96084    366.22193   -1.1534362    6775.7971    102.30911    102.30911    716.16376   -0.9330063     671.4056   0.15430905 
10000000   -22.822082    369.58677   -1.3410792     6838.053    102.30911    102.30911    716.16376    -9.019601    672.62547   0.15430905 
11000000    36.824795    367.24432    6.1091644    6794.7133    102.30911    102.30911    716.16376     4.986374    693.54663   0.15430905 
11390002    77.653182    364.35791   -1.0959914    6741.3093    102.30911    102.30911    716.16376   -3.8914117     710.1281   0.15430905 
Loop time of 14449 on 6 procs for 10000000 steps with 6208 atoms

Performance: 597.967 ns/day, 0.040 hours/ns, 692.091 timesteps/s
99.4% CPU use with 6 MPI tasks x no OpenMP threads

MPI task timing breakdown:
Section |  min time  |  avg time  |  max time  |%varavg| %total
---------------------------------------------------------------
Pair    | 6533.8     | 8999       | 9680       |1174.4 | 62.28
Bond    | 112.8      | 115.92     | 118.76     |  19.7 |  0.80
Neigh   | 1364.6     | 1379       | 1394.6     |  27.4 |  9.54
Comm    | 1945.7     | 2744.6     | 4858.9     |1873.2 | 19.00
Output  | 0.53147    | 0.61059    | 0.94137    |  19.0 |  0.00
Modify  | 861.62     | 1062.3     | 1384.4     | 542.5 |  7.35
Other   |            | 147.5      |            |       |  1.02

Nlocal:        1034.67 ave        1077 max         998 min
Histogram: 1 1 0 1 0 1 0 1 0 1
Nghost:        5713.00 ave        7370 max        3446 min
Histogram: 1 0 0 0 2 0 1 0 0 2
Neighs:        43588.5 ave       51732 max       36607 min
Histogram: 1 2 0 0 0 1 0 0 0 2

Total # of neighbors = 261531
Ave neighs/atom = 42.128061
Ave special neighs/atom = 1.9793814
Neighbor list builds = 397757
Dangerous builds = 0

write_data data$d-$T.out
write_data dataTIA_WT-$T.out
write_data dataTIA_WT-365.out
System init for write_data ...

shell cd ..

clear

next x

jump SELF loopT
variable x loop 5

variable T equal 335+10*$x
variable T equal 335+10*4

units       real
dimension   3
boundary    p p p
atom_style  full

shell cd $d/
shell cd TIA_WT/

read_data $d.config
read_data TIA_WT.config
Reading data file ...
  orthogonal box = (0.0000000 0.0000000 0.0000000) to (300.00000 300.00000 300.00000)
  1 by 2 by 3 MPI processor grid
  reading atoms ...
  97 atoms
  scanning bonds ...
  1 = max bonds/atom
  reading bonds ...
  96 bonds
Finding 1-2 1-3 1-4 neighbors ...
  special bond factors lj:    0        0        0       
  special bond factors coul:  0        0        0       
     2 = max # of 1-2 neighbors
     2 = max # of 1-3 neighbors
     4 = max # of 1-4 neighbors
     6 = max # of special neighbors
  special bonds CPU = 0.000 seconds
  read_data CPU = 0.052 seconds

log log.$T
log log.375
