
bond_style  harmonic
dielectric  80.0

set type 25 charge 0.75
Setting atom values ...
  0 settings made for charge
set type 27 charge -0.75
Setting atom values ...
  0 settings made for charge
set type 28 charge -0.75
Setting atom values ...
  0 settings made for charge
set type 36 charge 0.375
Setting atom values ...
  0 settings made for charge
set type 23 charge 0.75
Setting atom values ...
  0 settings made for charge

set type 5 charge 0.75
Setting atom values ...
  1 settings made for charge
set type 7 charge -0.75
Setting atom values ...
  0 settings made for charge
set type 3  charge 0.75
Setting atom values ...
  0 settings made for charge
set type 16 charge 0.375
Setting atom values ...
  0 settings made for charge
set type 8  charge -0.75
Setting atom values ...
  1 settings made for charge

bond_coeff          1     9.600     3.81
#bond_coeff          2     9.600     5.00

pair_style  hybrid/overlay wf/cut 25.0 coul/debye 0.126 0.0

pair_coeff 30 30 wf/cut 0.004751 6.45565 1 3 19.367
pair_coeff 1 1 wf/cut 0.039564 6.467950871367303 1 2 19.403852614101908
pair_coeff 1 2 wf/cut 0.068017 5.576178403526399 1 2 16.728535210579196
pair_coeff 1 3 wf/cut 0.032686 6.5677835361737795 1 2 19.70335060852134
pair_coeff 1 4 wf/cut 0.035161 6.178228033595178 1 2 18.534684100785533
pair_coeff 1 5 wf/cut 0.171515 6.643964892255349 1 2 19.93189467676605
pair_coeff 1 6 wf/cut 0.044522 5.868502140125925 1 2 17.605506420377775
pair_coeff 1 7 wf/cut 0.073172 6.14145960937047 1 2 18.424378828111408
pair_coeff 1 8 wf/cut 0.077577 6.318176525841784 1 2 18.95452957752535
pair_coeff 1 9 wf/cut 0.229375 6.590037435016079 1 2 19.770112305048237
pair_coeff 1 10 wf/cut 0.022571 6.320571545407576 1 2 18.96171463622273
pair_coeff 1 11 wf/cut 0.025281 6.483443734640188 1 2 19.450331203920562
pair_coeff 1 12 wf/cut 0.120006 6.36518785664648 1 2 19.09556356993944
pair_coeff 1 13 wf/cut 0.294931 6.755728450520449 1 2 20.267185351561345
pair_coeff 1 14 wf/cut 0.215603 6.538208522101147 1 2 19.61462556630344
pair_coeff 1 15 wf/cut 0.050582 5.938940625510648 1 2 17.816821876531947
pair_coeff 1 16 wf/cut 0.203491 6.392507281968151 1 2 19.177521845904455
pair_coeff 1 17 wf/cut 0.116706 6.188018494610175 1 2 18.564055483830522
pair_coeff 1 18 wf/cut 0.059120 6.1344640513130955 1 2 18.403392153939286
pair_coeff 1 19 wf/cut 0.054437 6.094294827619396 1 2 18.282884482858186
pair_coeff 1 20 wf/cut 0.019979 6.496393035701747 1 2 19.48917910710524
pair_coeff 1 21 wf/cut 0.033511 6.472967463905089 1 2 19.418902391715267
pair_coeff 1 22 wf/cut 0.053464 5.579884038976499 1 2 16.7396521169295
pair_coeff 1 23 wf/cut 0.028840 6.572908139010548 1 2 19.718724417031645
pair_coeff 1 24 wf/cut 0.030487 6.183085528083141 1 2 18.549256584249424
pair_coeff 1 25 wf/cut 0.126057 6.646517494086263 1 2 19.93955248225879
pair_coeff 1 26 wf/cut 0.037087 5.873266644604083 1 2 17.61979993381225
pair_coeff 1 27 wf/cut 0.057192 6.145621669676131 1 2 18.43686500902839
pair_coeff 1 28 wf/cut 0.060220 6.322430858089529 1 2 18.967292574268587
pair_coeff 1 29 wf/cut 0.166559 6.592040039094211 1 2 19.776120117282634
pair_coeff 1 30 wf/cut 0.022157 6.322886509244067 1 2 18.9686595277322
pair_coeff 1 31 wf/cut 0.023649 6.486360198534797 1 2 19.45908059560439
pair_coeff 1 32 wf/cut 0.089698 6.368425539955892 1 2 19.105276619867674
pair_coeff 1 33 wf/cut 0.212282 6.7573688868401405 1 2 20.27210666052042
pair_coeff 1 34 wf/cut 0.156918 6.5402914181442595 1 2 19.620874254432778
pair_coeff 1 35 wf/cut 0.041217 5.943583554201671 1 2 17.830750662605013
pair_coeff 1 36 wf/cut 0.148384 6.394666170151445 1 2 19.183998510454334
pair_coeff 1 37 wf/cut 0.087498 6.191219964195186 1 2 18.57365989258556
pair_coeff 1 38 wf/cut 0.047275 6.139108925912469 1 2 18.417326777737408
pair_coeff 1 39 wf/cut 0.043970 6.098946985727069 1 2 18.296840957181207
pair_coeff 1 40 wf/cut 0.019979 6.496393035701747 1 2 19.48917910710524
pair_coeff 2 2 wf/cut 0.096470 4.695110240398406 1 2 14.085330721195216
pair_coeff 2 3 wf/cut 0.061139 5.671338290828199 1 2 17.014014872484598
pair_coeff 2 4 wf/cut 0.063614 5.284424971479424 1 2 15.85327491443827
pair_coeff 2 5 wf/cut 0.199968 5.766386193227936 1 2 17.299158579683805
pair_coeff 2 6 wf/cut 0.072975 4.980134552672144 1 2 14.940403658016432
pair_coeff 2 7 wf/cut 0.101625 5.2592548053112145 1 2 15.777764415933643
pair_coeff 2 8 wf/cut 0.106030 5.436374588857539 1 2 16.30912376657262
pair_coeff 2 9 wf/cut 0.257828 5.7131654456309935 1 2 17.139496336892982
pair_coeff 2 10 wf/cut 0.051024 5.412393397897493 1 2 16.23718019369248
pair_coeff 2 11 wf/cut 0.053734 5.578930397816427 1 2 16.736791193449278
pair_coeff 2 12 wf/cut 0.148459 5.486299347261422 1 2 16.458898041784266
pair_coeff 2 13 wf/cut 0.323384 5.879238002082802 1 2 17.63771400624841
pair_coeff 2 14 wf/cut 0.244056 5.661218822883835 1 2 16.983656468651503
pair_coeff 2 15 wf/cut 0.079035 5.052524512175333 1 2 15.157573536526
pair_coeff 2 16 wf/cut 0.231944 5.515411637199979 1 2 16.54623491159994
pair_coeff 2 17 wf/cut 0.145159 5.3090163197417555 1 2 15.927048959225267
pair_coeff 2 18 wf/cut 0.087573 5.249990542761369 1 2 15.749971628284106
pair_coeff 2 19 wf/cut 0.082890 5.208722790322849 1 2 15.626168370968546
pair_coeff 2 20 wf/cut 0.048432 5.580329252471181 1 2 16.740987757413542
pair_coeff 2 21 wf/cut 0.061964 5.577215175821233 1 2 16.731645527463698
pair_coeff 2 22 wf/cut 0.081917 4.696396560631559 1 2 14.089189681894677
pair_coeff 2 23 wf/cut 0.057293 5.67211261999139 1 2 17.016337859974172
pair_coeff 2 24 wf/cut 0.058940 5.285212528563172 1 2 15.855637585689518
pair_coeff 2 25 wf/cut 0.154510 5.767769508320207 1 2 17.30330852496062
pair_coeff 2 26 wf/cut 0.065540 4.981125987510791 1 2 14.943377962532374
pair_coeff 2 27 wf/cut 0.085645 5.260651874488179 1 2 15.781955623464537
pair_coeff 2 28 wf/cut 0.088673 5.437809343618614 1 2 16.313428030855842
pair_coeff 2 29 wf/cut 0.195012 5.714358676536591 1 2 17.143076029609773
pair_coeff 2 30 wf/cut 0.050610 5.412530359493723 1 2 16.23759107848117
pair_coeff 2 31 wf/cut 0.052102 5.579325356579805 1 2 16.737976069739414
pair_coeff 2 32 wf/cut 0.118151 5.487774115196598 1 2 16.463322345589795
pair_coeff 2 33 wf/cut 0.240735 5.880303283956183 1 2 17.64090985186855
pair_coeff 2 34 wf/cut 0.185371 5.662447134978403 1 2 16.987341404935208
pair_coeff 2 35 wf/cut 0.069670 5.053695239348068 1 2 15.161085718044204
pair_coeff 2 36 wf/cut 0.176837 5.516638738971832 1 2 16.549916216915495
pair_coeff 2 37 wf/cut 0.115951 5.310437234694913 1 2 15.931311704084738
pair_coeff 2 38 wf/cut 0.075728 5.251325825579545 1 2 15.753977476738633
pair_coeff 2 39 wf/cut 0.072423 5.20997288304294 1 2 15.629918649128818
pair_coeff 2 40 wf/cut 0.048432 5.580329252471181 1 2 16.740987757413542
pair_coeff 3 3 wf/cut 0.019117 6.671340524039856 1 2 20.014021572119567
pair_coeff 3 4 wf/cut 0.028283 6.279399881910995 1 2 18.838199645732985
pair_coeff 3 5 wf/cut 0.121938 6.73819193132635 1 2 20.21457579397905
pair_coeff 3 6 wf/cut 0.037644 5.966686347623176 1 2 17.90005904286953
pair_coeff 3 7 wf/cut 0.000493 6.236987380482699 1 2 18.710962141448096
pair_coeff 3 8 wf/cut 0.000526 6.413575163938182 1 2 19.240725491814544
pair_coeff 3 9 wf/cut 0.102701 6.684083406034673 1 2 20.052250218104017
pair_coeff 3 10 wf/cut 0.015693 6.433541011383533 1 2 19.3006230341506
pair_coeff 3 11 wf/cut 0.018403 6.592557574989555 1 2 19.777672724968664
pair_coeff 3 12 wf/cut 0.113128 6.4596938105680355 1 2 19.37908143170411
pair_coeff 3 13 wf/cut 0.104796 6.849685211660051 1 2 20.549055634980153
pair_coeff 3 14 wf/cut 0.115276 6.632280360446061 1 2 19.896841081338184
pair_coeff 3 15 wf/cut 0.043704 6.036179732070119 1 2 18.10853919621036
pair_coeff 3 16 wf/cut 0.087370 6.4866030031823305 1 2 19.45980900954699
pair_coeff 3 17 wf/cut 0.109828 6.2825460057664415 1 2 18.847638017299325
pair_coeff 3 18 wf/cut 0.052242 6.2310615597122725 1 2 18.693184679136817
pair_coeff 3 19 wf/cut 0.047559 6.191153675456269 1 2 18.573461026368804
pair_coeff 3 20 wf/cut 0.013101 6.617996254538358 1 2 19.853988763615074
pair_coeff 3 21 wf/cut 0.026633 6.575236990212751 1 2 19.725710970638254
pair_coeff 3 22 wf/cut 0.046586 5.67591070475063 1 2 17.02773211425189
pair_coeff 3 23 wf/cut 0.016267 6.6786690213492745 1 2 20.036007064047823
pair_coeff 3 24 wf/cut 0.023609 6.28697050091405 1 2 18.860911502742148
pair_coeff 3 25 wf/cut 0.088471 6.7410021187479785 1 2 20.223006356243935
pair_coeff 3 26 wf/cut 0.030209 5.973496417353158 1 2 17.920489252059475
pair_coeff 3 27 wf/cut 0.000375 6.242202340571064 1 2 18.726607021713193
pair_coeff 3 28 wf/cut 0.000395 6.41884518513886 1 2 19.25653555541658
pair_coeff 3 29 wf/cut 0.087295 6.686244113621416 1 2 20.058732340864246
pair_coeff 3 30 wf/cut 0.015279 6.438064853494475 1 2 19.314194560483426
pair_coeff 3 31 wf/cut 0.016771 6.597859600272992 1 2 19.793578800818977
pair_coeff 3 32 wf/cut 0.082820 6.463434808995108 1 2 19.390304426985324
pair_coeff 3 33 wf/cut 0.089077 6.851438991432198 1 2 20.554316974296594
pair_coeff 3 34 wf/cut 0.097985 6.634536462444846 1 2 19.903609387334537
pair_coeff 3 35 wf/cut 0.034339 6.042553594266142 1 2 18.127660782798426
pair_coeff 3 36 wf/cut 0.062880 6.488951472342971 1 2 19.466854417028912
pair_coeff 3 37 wf/cut 0.080620 6.286259565568102 1 2 18.858778696704306
pair_coeff 3 38 wf/cut 0.040397 6.23694969931501 1 2 18.71084909794503
pair_coeff 3 39 wf/cut 0.037092 6.197406382364393 1 2 18.59221914709318
pair_coeff 3 40 wf/cut 0.013101 6.617996254538358 1 2 19.853988763615074
pair_coeff 4 4 wf/cut 0.030758 5.8890615748048605 1 2 17.667184724414582
pair_coeff 4 5 wf/cut 0.167112 6.352015695367313 1 2 19.056047086101938
pair_coeff 4 6 wf/cut 0.040119 5.577947754246859 1 2 16.733843262740578
pair_coeff 4 7 wf/cut 0.068769 5.849866323299111 1 2 17.549598969897332
pair_coeff 4 8 wf/cut 0.073174 6.026541387517959 1 2 18.079624162553877
pair_coeff 4 9 wf/cut 0.224972 6.298063007043266 1 2 18.894189021129797
pair_coeff 4 10 wf/cut 0.018168 6.03696547344559 1 2 18.11089642033677
pair_coeff 4 11 wf/cut 0.020878 6.198088878491606 1 2 18.594266635474817
pair_coeff 4 12 wf/cut 0.115603 6.073287961608412 1 2 18.219863884825237
pair_coeff 4 13 wf/cut 0.290527 6.463775207339586 1 2 19.39132562201876
pair_coeff 4 14 wf/cut 0.211200 6.246251077325644 1 2 18.73875323197693
pair_coeff 4 15 wf/cut 0.046179 5.648007650359314 1 2 16.94402295107794
pair_coeff 4 16 wf/cut 0.199088 6.1005286446452045 1 2 18.301585933935613
pair_coeff 4 17 wf/cut 0.112303 5.896099182190375 1 2 17.688297546571125
pair_coeff 4 18 wf/cut 0.054717 5.84319611761197 1 2 17.52958835283591
pair_coeff 4 19 wf/cut 0.050034 5.803211551983609 1 2 17.40963465595083
pair_coeff 4 20 wf/cut 0.015576 6.214617146494642 1 2 18.643851439483925
pair_coeff 4 21 wf/cut 0.029108 6.184377266229273 1 2 18.55313179868782
pair_coeff 4 22 wf/cut 0.049061 5.288433024843104 1 2 15.865299074529311
pair_coeff 4 23 wf/cut 0.024437 6.285985931141882 1 2 18.857957793425648
pair_coeff 4 24 wf/cut 0.026084 5.895181038887271 1 2 17.685543116661812
pair_coeff 4 25 wf/cut 0.121654 6.3546176961456355 1 2 19.063853088436908
pair_coeff 4 26 wf/cut 0.032684 5.583620888610048 1 2 16.75086266583014
pair_coeff 4 27 wf/cut 0.052789 5.854435916763915 1 2 17.563307750291745
pair_coeff 4 28 wf/cut 0.055817 6.031184910048361 1 2 18.093554730145083
pair_coeff 4 29 wf/cut 0.162155 6.300073473520442 1 2 18.900220420561325
pair_coeff 4 30 wf/cut 0.017754 6.038590687548953 1 2 18.115772062646858
pair_coeff 4 31 wf/cut 0.019246 6.20213243224441 1 2 18.606397296733228
pair_coeff 4 32 wf/cut 0.085295 6.076667470375622 1 2 18.230002411126865
pair_coeff 4 33 wf/cut 0.207879 6.4653998696548625 1 2 19.396199608964587
pair_coeff 4 34 wf/cut 0.152515 6.248347277402027 1 2 18.74504183220608
pair_coeff 4 35 wf/cut 0.036814 5.653400669933968 1 2 16.960202009801904
pair_coeff 4 36 wf/cut 0.143981 6.1027057764377375 1 2 18.308117329313212
pair_coeff 4 37 wf/cut 0.083095 5.899444861363162 1 2 17.698334584089487
pair_coeff 4 38 wf/cut 0.042872 5.848454222246143 1 2 17.545362666738427
pair_coeff 4 39 wf/cut 0.039567 5.808550835350359 1 2 17.425652506051076
pair_coeff 4 40 wf/cut 0.015576 6.214617146494642 1 2 18.643851439483925
pair_coeff 5 5 wf/cut 0.089916 6.839051042416954 1 2 20.51715312725086
pair_coeff 5 6 wf/cut 0.176473 6.049093128275473 1 2 18.14727938482642
pair_coeff 5 7 wf/cut 0.001522 6.329860382208001 1 2 18.989581146624005
pair_coeff 5 8 wf/cut 0.001554 6.507087894628845 1 2 19.521263683886534
pair_coeff 5 9 wf/cut 0.607820 6.786238537205683 1 2 20.358715611617047
pair_coeff 5 10 wf/cut 0.154522 6.477800731622431 1 2 19.433402194867295
pair_coeff 5 11 wf/cut 0.157232 6.644606745714045 1 2 19.933820237142136
pair_coeff 5 12 wf/cut 0.251957 6.5582801074116395 1 2 19.674840322234918
pair_coeff 5 13 wf/cut 0.691657 6.952550947859904 1 2 20.85765284357971
pair_coeff 5 14 wf/cut 0.544942 6.734244851368496 1 2 20.20273455410549
pair_coeff 5 15 wf/cut 0.182533 6.121907195991114 1 2 18.365721587973344
pair_coeff 5 16 wf/cut 0.124237 6.588371399225676 1 2 19.76511419767703
pair_coeff 5 17 wf/cut 0.248657 6.381027696653046 1 2 19.143083089959138
pair_coeff 5 18 wf/cut 0.191071 6.319850876308843 1 2 18.95955262892653
pair_coeff 5 19 wf/cut 0.186388 6.2782756347766915 1 2 18.834826904330075
pair_coeff 5 20 wf/cut 0.151930 6.644914452592528 1 2 19.934743357777585
pair_coeff 5 21 wf/cut 0.165462 6.6442230427261695 1 2 19.93266912817851
pair_coeff 5 22 wf/cut 0.185415 5.7668587075646895 1 2 17.300576122694068
pair_coeff 5 23 wf/cut 0.160791 6.738370816695987 1 2 20.21511245008796
pair_coeff 5 24 wf/cut 0.162438 6.352227758045304 1 2 19.056683274135914
pair_coeff 5 25 wf/cut 0.076528 6.839775073180529 1 2 20.519325219541585
pair_coeff 5 26 wf/cut 0.169038 6.0493803544908396 1 2 18.14814106347252
pair_coeff 5 27 wf/cut 0.001403 6.330338025744615 1 2 18.991014077233842
pair_coeff 5 28 wf/cut 0.001424 6.507609785991295 1 2 19.522829357973883
pair_coeff 5 29 wf/cut 0.516647 6.786966179847217 1 2 20.36089853954165
pair_coeff 5 30 wf/cut 0.154108 6.477855546012645 1 2 19.433566638037934
pair_coeff 5 31 wf/cut 0.155600 6.644688317632491 1 2 19.934064952897472
pair_coeff 5 32 wf/cut 0.221649 6.558922216808411 1 2 19.676766650425233
pair_coeff 5 33 wf/cut 0.587908 6.953270762564632 1 2 20.859812287693895
pair_coeff 5 34 wf/cut 0.463200 6.734965561624807 1 2 20.20489668487442
pair_coeff 5 35 wf/cut 0.173168 6.122239691611766 1 2 18.366719074835295
pair_coeff 5 36 wf/cut 0.103828 6.589083179632521 1 2 19.767249538897563
pair_coeff 5 37 wf/cut 0.219449 6.381655047319296 1 2 19.14496514195789
pair_coeff 5 38 wf/cut 0.179226 6.320242196579514 1 2 18.96072658973854
pair_coeff 5 39 wf/cut 0.175921 6.27864243896636 1 2 18.83592731689908
pair_coeff 5 40 wf/cut 0.151930 6.644914452592528 1 2 19.934743357777585
pair_coeff 6 6 wf/cut 0.049480 5.270073550243385 1 2 15.810220650730155
pair_coeff 6 7 wf/cut 0.078130 5.545103888084069 1 2 16.635311664252207
pair_coeff 6 8 wf/cut 0.082535 5.721983178129665 1 2 17.165949534388993
pair_coeff 6 9 wf/cut 0.234333 5.995374866482686 1 2 17.986124599448058
pair_coeff 6 10 wf/cut 0.027529 5.714672842433839 1 2 17.14401852730152
pair_coeff 6 11 wf/cut 0.030239 5.879183169613761 1 2 17.637549508841282
pair_coeff 6 12 wf/cut 0.124964 5.769878425481944 1 2 17.30963527644583
pair_coeff 6 13 wf/cut 0.299889 6.1612197345718664 1 2 18.4836592037156
pair_coeff 6 14 wf/cut 0.220561 5.943524169558512 1 2 17.830572508675537
pair_coeff 6 15 wf/cut 0.055540 5.341186580911172 1 2 16.023559742733518
pair_coeff 6 16 wf/cut 0.208449 5.797765867232053 1 2 17.393297601696162
pair_coeff 6 17 wf/cut 0.121665 5.592676667454632 1 2 16.778030002363895
pair_coeff 6 18 wf/cut 0.064078 5.537383848868321 1 2 16.612151546604963
pair_coeff 6 19 wf/cut 0.059395 5.496867679432823 1 2 16.490603038298467
pair_coeff 6 20 wf/cut 0.024937 5.887264113119765 1 2 17.661792339359295
pair_coeff 6 21 wf/cut 0.038469 5.872091702440819 1 2 17.616275107322455
pair_coeff 6 22 wf/cut 0.058422 4.983057318967985 1 2 14.949171956903955
pair_coeff 6 23 wf/cut 0.033798 5.970212624670237 1 2 17.91063787401071
pair_coeff 6 24 wf/cut 0.035445 5.581322386503443 1 2 16.743967159510326
pair_coeff 6 25 wf/cut 0.131015 6.051283655448215 1 2 18.153850966344642
pair_coeff 6 26 wf/cut 0.042046 5.273529178305013 1 2 15.82058753491504
pair_coeff 6 27 wf/cut 0.062150 5.548382201124551 1 2 16.645146603373654
pair_coeff 6 28 wf/cut 0.065178 5.725365872076537 1 2 17.17609761622961
pair_coeff 6 29 wf/cut 0.171517 5.997120040197383 1 2 17.991360120592148
pair_coeff 6 30 wf/cut 0.027116 5.716115591130418 1 2 17.148346773391253
pair_coeff 6 31 wf/cut 0.028607 5.881066148485684 1 2 17.643198445457053
pair_coeff 6 32 wf/cut 0.094656 5.77257425641905 1 2 17.317722769257152
pair_coeff 6 33 wf/cut 0.217240 6.16266774871136 1 2 18.48800324613408
pair_coeff 6 34 wf/cut 0.161876 5.945332519051 1 2 17.835997557153
pair_coeff 6 35 wf/cut 0.046175 5.344636755005952 1 2 16.03391026501786
pair_coeff 6 36 wf/cut 0.153342 5.799630893236802 1 2 17.398892679710407
pair_coeff 6 37 wf/cut 0.092457 5.595329366190724 1 2 16.785988098572172
pair_coeff 6 38 wf/cut 0.052233 5.540935423926066 1 2 16.6228062717782
pair_coeff 6 39 wf/cut 0.048928 5.50037559161048 1 2 16.50112677483144
pair_coeff 6 40 wf/cut 0.024937 5.887264113119765 1 2 17.661792339359295
pair_coeff 7 7 wf/cut 0.079096 5.823521721060312 1 2 17.470565163180936
pair_coeff 7 8 wf/cut 0.082359 6.000582237524121 1 2 18.001746712572363
pair_coeff 7 9 wf/cut 0.262983 6.276473791430636 1 2 18.829421374291908
pair_coeff 7 10 wf/cut 0.056178 5.978735433494051 1 2 17.93620630048215
pair_coeff 7 11 wf/cut 0.058888 6.145089275635634 1 2 18.4352678269069
pair_coeff 7 12 wf/cut 0.153614 6.0500403862929435 1 2 18.150121158878832
pair_coeff 7 13 wf/cut 0.328538 6.4424403069543335 1 2 19.327320920863002
pair_coeff 7 14 wf/cut 0.249211 6.224557346027278 1 2 18.673672038081833
pair_coeff 7 15 wf/cut 0.084189 5.617298771179795 1 2 16.851896313539385
pair_coeff 7 16 wf/cut 0.001758 6.078759471752929 1 2 18.236278415258788
pair_coeff 7 17 wf/cut 0.150314 5.872796196825872 1 2 17.618388590477615
pair_coeff 7 18 wf/cut 0.092728 5.81454574012806 1 2 17.44363722038418
pair_coeff 7 19 wf/cut 0.088045 5.773404302618334 1 2 17.320212907855
pair_coeff 7 20 wf/cut 0.053587 6.146988238119009 1 2 18.44096471435703
pair_coeff 7 21 wf/cut 0.067118 6.142810853550669 1 2 18.428432560652006
pair_coeff 7 22 wf/cut 0.087071 5.260822534908925 1 2 15.782467604726776
pair_coeff 7 23 wf/cut 0.062448 6.238009317192061 1 2 18.714027951576185
pair_coeff 7 24 wf/cut 0.064094 5.850906179325341 1 2 17.552718537976023
pair_coeff 7 25 wf/cut 0.159665 6.331479448731908 1 2 18.994438346195725
pair_coeff 7 26 wf/cut 0.070695 5.546505225276659 1 2 16.639515675829976
pair_coeff 7 27 wf/cut 0.067258 5.825264832984326 1 2 17.47579449895298
pair_coeff 7 28 wf/cut 0.069297 6.002427424339147 1 2 18.00728227301744
pair_coeff 7 29 wf/cut 0.200166 6.277866750279897 1 2 18.83360025083969
pair_coeff 7 30 wf/cut 0.055765 5.978921905643417 1 2 17.93676571693025
pair_coeff 7 31 wf/cut 0.057257 6.145621669676131 1 2 18.43686500902839
pair_coeff 7 32 wf/cut 0.123306 6.051811079871612 1 2 18.155433239614837
pair_coeff 7 33 wf/cut 0.245890 6.4436539809330755 1 2 19.330961942799227
pair_coeff 7 34 wf/cut 0.190526 6.225980124267849 1 2 18.677940372803548
pair_coeff 7 35 wf/cut 0.074825 5.6188072088999945 1 2 16.856421626699984
pair_coeff 7 36 wf/cut 0.001350 6.080187764149639 1 2 18.24056329244892
pair_coeff 7 37 wf/cut 0.121106 5.874523045623452 1 2 17.623569136870355
pair_coeff 7 38 wf/cut 0.080883 5.816239431041905 1 2 17.448718293125715
pair_coeff 7 39 wf/cut 0.077578 5.775001596638995 1 2 17.325004789916985
pair_coeff 7 40 wf/cut 0.053587 6.146988238119009 1 2 18.44096471435703
pair_coeff 8 8 wf/cut 0.085622 6.177670315650897 1 2 18.533010946952693
pair_coeff 8 9 wf/cut 0.267388 6.453698205558216 1 2 19.36109461667465
pair_coeff 8 10 wf/cut 0.060583 6.155038804583549 1 2 18.46511641375065
pair_coeff 8 11 wf/cut 0.063293 6.321457293122011 1 2 18.964371879366034
pair_coeff 8 12 wf/cut 0.158019 6.22721384211578 1 2 18.681641526347338
pair_coeff 8 13 wf/cut 0.332943 6.61969178186508 1 2 19.85907534559524
pair_coeff 8 14 wf/cut 0.253616 6.401798946045327 1 2 19.205396838135982
pair_coeff 8 15 wf/cut 0.088594 5.794219764312674 1 2 17.382659292938023
pair_coeff 8 16 wf/cut 0.001791 6.2560007029022255 1 2 18.768002108706675
pair_coeff 8 17 wf/cut 0.154719 6.049988923928926 1 2 18.14996677178678
pair_coeff 8 18 wf/cut 0.097133 5.991524845146615 1 2 17.974574535439846
pair_coeff 8 19 wf/cut 0.092450 5.950364732175825 1 2 17.851094196527477
pair_coeff 8 20 wf/cut 0.057992 6.323325627682127 1 2 18.96997688304638
pair_coeff 8 21 wf/cut 0.071523 6.319407907453407 1 2 18.95822372236022
pair_coeff 8 22 wf/cut 0.091476 5.437918514751647 1 2 16.313755544254942
pair_coeff 8 23 wf/cut 0.066853 6.414637503765215 1 2 19.243912511295648
pair_coeff 8 24 wf/cut 0.068499 6.027610728824833 1 2 18.082832186474498
pair_coeff 8 25 wf/cut 0.164070 6.50867097271995 1 2 19.52601291815985
pair_coeff 8 26 wf/cut 0.075100 5.723271374681476 1 2 17.16981412404443
pair_coeff 8 27 wf/cut 0.095204 6.002225923033709 1 2 18.006677769101127
pair_coeff 8 28 wf/cut 0.072560 6.179413824459994 1 2 18.538241473379983
pair_coeff 8 29 wf/cut 0.204571 6.455074051412765 1 2 19.365222154238296
pair_coeff 8 30 wf/cut 0.060170 6.155372367938502 1 2 18.466117103815506
pair_coeff 8 31 wf/cut 0.061662 6.321931368367982 1 2 18.965794105103946
pair_coeff 8 32 wf/cut 0.127711 6.228922014398231 1 2 18.686766043194694
pair_coeff 8 33 wf/cut 0.250295 6.620903112987423 1 2 19.86270933896227
pair_coeff 8 34 wf/cut 0.194931 6.403201712664134 1 2 19.2096051379924
pair_coeff 8 35 wf/cut 0.079230 5.795615810910755 1 2 17.386847432732267
pair_coeff 8 36 wf/cut 0.001379 6.257425310960982 1 2 18.772275932882945
pair_coeff 8 37 wf/cut 0.125511 6.051653861598323 1 2 18.154961584794968
pair_coeff 8 38 wf/cut 0.085288 5.993104375441103 1 2 17.97931312632331
pair_coeff 8 39 wf/cut 0.081983 5.951847773872721 1 2 17.855543321618164
pair_coeff 8 40 wf/cut 0.057992 6.323325627682127 1 2 18.96997688304638
pair_coeff 9 9 wf/cut 0.419186 6.733634028253079 1 2 20.20090208475924
pair_coeff 9 10 wf/cut 0.212382 6.423549039740656 1 2 19.270647119221966
pair_coeff 9 11 wf/cut 0.215092 6.590387900103195 1 2 19.771163700309586
pair_coeff 9 12 wf/cut 0.309817 6.50524897581083 1 2 19.51574692743249
pair_coeff 9 13 wf/cut 0.484741 6.900050363131952 1 2 20.700151089395856
pair_coeff 9 14 wf/cut 0.405414 6.6815889712242855 1 2 20.044766913672856
pair_coeff 9 15 wf/cut 0.240393 6.068280818635755 1 2 18.204842455907265
pair_coeff 9 16 wf/cut 0.393302 6.535691224609458 1 2 19.607073673828374
pair_coeff 9 17 wf/cut 0.306517 6.327982683666391 1 2 18.98394805099917
pair_coeff 9 18 wf/cut 0.248931 6.266295198960733 1 2 18.798885596882197
pair_coeff 9 19 wf/cut 0.244248 6.2246507773507185 1 2 18.673952332052156
pair_coeff 9 20 wf/cut 0.209790 6.5905505017289965 1 2 19.771651505186988
pair_coeff 9 21 wf/cut 0.223322 6.590180270116687 1 2 19.770540810350063
pair_coeff 9 22 wf/cut 0.243275 5.713450024075365 1 2 17.140350072226095
pair_coeff 9 23 wf/cut 0.218651 6.6841805825849985 1 2 20.052541747754994
pair_coeff 9 24 wf/cut 0.220298 6.298178954636986 1 2 18.894536863910957
pair_coeff 9 25 wf/cut 0.315868 6.786739795335731 1 2 20.360219386007195
pair_coeff 9 26 wf/cut 0.226898 5.99553560612189 1 2 17.98660681836567
pair_coeff 9 27 wf/cut 0.247003 6.276768673597067 1 2 18.8303060207912
pair_coeff 9 28 wf/cut 0.250031 6.454011505099358 1 2 19.362034515298074
pair_coeff 9 29 wf/cut 0.356369 6.734156486173098 1 2 20.202469458519293
pair_coeff 9 30 wf/cut 0.211968 6.4235779793345555 1 2 19.270733938003666
pair_coeff 9 31 wf/cut 0.213460 6.590431338464252 1 2 19.771294015392755
pair_coeff 9 32 wf/cut 0.279509 6.505661229041637 1 2 19.516983687124913
pair_coeff 9 33 wf/cut 0.402093 6.900589936537501 1 2 20.701769809612504
pair_coeff 9 34 wf/cut 0.346729 6.682106650582579 1 2 20.046319951747737
pair_coeff 9 35 wf/cut 0.231028 6.06846960743136 1 2 18.20540882229408
pair_coeff 9 36 wf/cut 0.338195 6.536191669581551 1 2 19.60857500874465
pair_coeff 9 37 wf/cut 0.277309 6.328383771538186 1 2 18.98515131461456
pair_coeff 9 38 wf/cut 0.237086 6.266521616565618 1 2 18.799564849696853
pair_coeff 9 39 wf/cut 0.233781 6.224860927463627 1 2 18.674582782390882
pair_coeff 9 40 wf/cut 0.209790 6.5905505017289965 1 2 19.771651505186988
pair_coeff 10 10 wf/cut 0.005578 6.265999286288815 1 2 18.797997858866445
pair_coeff 10 11 wf/cut 0.008288 6.390932891994093 1 2 19.17279867598228
pair_coeff 10 12 wf/cut 0.103013 6.199729734496916 1 2 18.59918920349075
pair_coeff 10 13 wf/cut 0.277937 6.589117480615403 1 2 19.76735244184621
pair_coeff 10 14 wf/cut 0.198610 6.371783619045257 1 2 19.11535085713577
pair_coeff 10 15 wf/cut 0.033589 5.781664862063682 1 2 17.344994586191046
pair_coeff 10 16 wf/cut 0.186498 6.226104236834126 1 2 18.67831271050238
pair_coeff 10 17 wf/cut 0.099713 6.022605657483588 1 2 18.067816972450764
pair_coeff 10 18 wf/cut 0.042127 5.974331431598945 1 2 17.922994294796837
pair_coeff 10 19 wf/cut 0.037444 5.935671447441882 1 2 17.807014342325644
pair_coeff 10 21 wf/cut 0.016518 6.336783382464571 1 2 19.010350147393712
pair_coeff 10 22 wf/cut 0.036471 5.418375566526451 1 2 16.255126699579353
pair_coeff 10 23 wf/cut 0.011847 6.452549354094189 1 2 19.357648062282568
pair_coeff 10 24 wf/cut 0.013494 6.0532242372044625 1 2 18.15967271161339
pair_coeff 10 25 wf/cut 0.109064 6.480992623201166 1 2 19.442977869603496
pair_coeff 10 26 wf/cut 0.020094 5.727883796640076 1 2 17.18365138992023
pair_coeff 10 27 wf/cut 0.040199 5.986137211233324 1 2 17.958411633699974
pair_coeff 10 28 wf/cut 0.043227 6.162354266488605 1 2 18.487062799465814
pair_coeff 10 29 wf/cut 0.149565 6.425899535640867 1 2 19.277698606922602
pair_coeff 10 30 wf/cut 0.005164 6.279450553510229 1 2 18.838351660530687
pair_coeff 10 31 wf/cut 0.006656 6.414806714205564 1 2 19.24442014261669
pair_coeff 10 32 wf/cut 0.072705 6.20424895331838 1 2 18.61274685995514
pair_coeff 10 33 wf/cut 0.195289 6.590957221363035 1 2 19.772871664089106
pair_coeff 10 34 wf/cut 0.139925 6.374256698313246 1 2 19.12277009493974
pair_coeff 10 35 wf/cut 0.024224 5.79281450588842 1 2 17.37844351766526
pair_coeff 10 36 wf/cut 0.131391 6.228661475252712 1 2 18.685984425758136
pair_coeff 10 37 wf/cut 0.070505 6.027117316392745 1 2 18.081351949178234
pair_coeff 10 38 wf/cut 0.030282 5.983977483837185 1 2 17.951932451511553
pair_coeff 10 39 wf/cut 0.026977 5.94607610198081 1 2 17.83822830594243
pair_coeff 11 11 wf/cut 0.010998 6.53407242179841 1 2 19.60221726539523
pair_coeff 11 12 wf/cut 0.105723 6.366490684329992 1 2 19.099472052989977
pair_coeff 11 13 wf/cut 0.280647 6.755935225417062 1 2 20.267805676251186
pair_coeff 11 14 wf/cut 0.201320 6.538603519887749 1 2 19.615810559663245
pair_coeff 11 15 wf/cut 0.036299 5.946968662780402 1 2 17.840905988341206
pair_coeff 11 16 wf/cut 0.189208 6.392942886970462 1 2 19.178828660911385
pair_coeff 11 17 wf/cut 0.102423 6.189364574070181 1 2 18.56809372221054
pair_coeff 11 18 wf/cut 0.044837 6.1402119935661545 1 2 18.420635980698464
pair_coeff 11 19 wf/cut 0.040154 6.101247830628814 1 2 18.30374349188644
pair_coeff 11 20 wf/cut 0.005696 6.607723261980873 1 2 19.823169785942618
pair_coeff 11 21 wf/cut 0.019228 6.496393035701747 1 2 19.48917910710524
pair_coeff 11 22 wf/cut 0.039181 5.584501642231329 1 2 16.753504926693985
pair_coeff 11 23 wf/cut 0.014557 6.60658239133453 1 2 19.819747174003588
pair_coeff 11 24 wf/cut 0.016204 6.210508609486856 1 2 18.631525828460568
pair_coeff 11 25 wf/cut 0.111774 6.647740379710509 1 2 19.943221139131527
pair_coeff 11 26 wf/cut 0.022804 5.890170182090268 1 2 17.670510546270805
pair_coeff 11 27 wf/cut 0.042909 6.151889183567281 1 2 18.455667550701843
pair_coeff 11 28 wf/cut 0.045937 6.3282208238107795 1 2 18.984662471432337
pair_coeff 11 29 wf/cut 0.152275 6.5927216895129135 1 2 19.77816506853874
pair_coeff 11 30 wf/cut 0.007874 6.397951767513159 1 2 19.193855302539475
pair_coeff 11 31 wf/cut 0.009366 6.548412328573101 1 2 19.645236985719304
pair_coeff 11 32 wf/cut 0.075415 6.370842118401069 1 2 19.112526355203208
pair_coeff 11 33 wf/cut 0.197999 6.75777413374384 1 2 20.27332240123152
pair_coeff 11 34 wf/cut 0.142635 6.541054552668633 1 2 19.623163658005897
pair_coeff 11 35 wf/cut 0.026934 5.956563720651988 1 2 17.869691161955963
pair_coeff 11 36 wf/cut 0.134101 6.395473237725452 1 2 19.186419713176356
pair_coeff 11 37 wf/cut 0.073215 6.193703302501737 1 2 18.58110990750521
pair_coeff 11 38 wf/cut 0.032992 6.148785435376327 1 2 18.446356306128983
pair_coeff 11 39 wf/cut 0.029687 6.110345071454451 1 2 18.331035214363354
pair_coeff 11 40 wf/cut 0.005696 6.607723261980873 1 2 19.823169785942618
pair_coeff 12 12 wf/cut 0.200448 6.277850874229409 1 2 18.833552622688227
pair_coeff 12 13 wf/cut 0.375372 6.671405311072043 1 2 20.01421593321613
pair_coeff 12 14 wf/cut 0.296045 6.4532756440329795 1 2 19.35982693209894
pair_coeff 12 15 wf/cut 0.131024 5.84255485528308 1 2 17.52766456584924
pair_coeff 12 16 wf/cut 0.283933 6.307431677259977 1 2 18.92229503177993
pair_coeff 12 17 wf/cut 0.197148 6.100591694847331 1 2 18.301775084541994
pair_coeff 12 18 wf/cut 0.139562 6.040345112977554 1 2 18.12103533893266
pair_coeff 12 19 wf/cut 0.134879 5.998852825433778 1 2 17.99655847630133
pair_coeff 12 20 wf/cut 0.100421 6.367152767929573 1 2 19.101458303788718
pair_coeff 12 21 wf/cut 0.113953 6.365699666568734 1 2 19.0970989997062
pair_coeff 12 22 wf/cut 0.133906 5.487109605448974 1 2 16.46132881634692
pair_coeff 12 23 wf/cut 0.109282 6.460110665288058 1 2 19.380331995864175
pair_coeff 12 24 wf/cut 0.110929 6.07371622854753 1 2 18.22114868564259
pair_coeff 12 25 wf/cut 0.206499 6.559327404195954 1 2 19.67798221258786
pair_coeff 12 26 wf/cut 0.117529 5.770434344200525 1 2 17.311303032601575
pair_coeff 12 27 wf/cut 0.137634 6.050878049577443 1 2 18.15263414873233
pair_coeff 12 28 wf/cut 0.140662 6.22811906216779 1 2 18.68435718650337
pair_coeff 12 29 wf/cut 0.247000 6.506235094735004 1 2 19.518705284205012
pair_coeff 12 30 wf/cut 0.102599 6.199847722340906 1 2 18.59954316702272
pair_coeff 12 31 wf/cut 0.104091 6.366663725733202 1 2 19.099991177199605
pair_coeff 12 32 wf/cut 0.170140 6.278875223812024 1 2 18.836625671436074
pair_coeff 12 33 wf/cut 0.292724 6.6723319742793255 1 2 20.016995922837978
pair_coeff 12 34 wf/cut 0.237360 6.454265231889239 1 2 19.362795695667717
pair_coeff 12 35 wf/cut 0.121659 5.8431832590102974 1 2 17.529549777030894
pair_coeff 12 36 wf/cut 0.228826 6.308421039847022 1 2 18.925263119541064
pair_coeff 12 37 wf/cut 0.167940 6.10158175427316 1 2 18.30474526281948
pair_coeff 12 38 wf/cut 0.127717 6.041063379946771 1 2 18.123190139840315
pair_coeff 12 39 wf/cut 0.124412 5.999536872422517 1 2 17.998610617267552
pair_coeff 12 40 wf/cut 0.100421 6.367152767929573 1 2 19.101458303788718
pair_coeff 13 13 wf/cut 0.550297 7.066547961746265 1 2 21.199643885238793
pair_coeff 13 14 wf/cut 0.470970 6.84798437757724 1 2 20.54395313273172
pair_coeff 13 15 wf/cut 0.305948 6.234139720557474 1 2 18.702419161672424
pair_coeff 13 16 wf/cut 0.458857 6.702091518082294 1 2 20.10627455424688
pair_coeff 13 17 wf/cut 0.372073 6.494164476750084 1 2 19.48249343025025
pair_coeff 13 18 wf/cut 0.314487 6.432174788842087 1 2 19.29652436652626
pair_coeff 13 19 wf/cut 0.309804 6.390531854157171 1 2 19.171595562471513
pair_coeff 13 20 wf/cut 0.275346 6.756032732095156 1 2 20.268098196285468
pair_coeff 13 21 wf/cut 0.288877 6.755817014102551 1 2 20.267451042307652
pair_coeff 13 22 wf/cut 0.308830 5.879425000161095 1 2 17.638275000483283
pair_coeff 13 23 wf/cut 0.284207 6.8497445004881925 1 2 20.549233501464578
pair_coeff 13 24 wf/cut 0.285853 6.4638463520895115 1 2 19.391539056268535
pair_coeff 13 25 wf/cut 0.381424 6.952910842994874 1 2 20.85873252898462
pair_coeff 13 26 wf/cut 0.292454 6.1613130283141055 1 2 18.483939084942318
pair_coeff 13 27 wf/cut 0.312558 6.442631932062835 1 2 19.327895796188507
pair_coeff 13 28 wf/cut 0.315587 6.619890395721167 1 2 19.8596711871635
pair_coeff 13 29 wf/cut 0.421925 6.900441239237516 1 2 20.701323717712548
pair_coeff 13 30 wf/cut 0.277524 6.589134834507833 1 2 19.7674045035235
pair_coeff 13 31 wf/cut 0.279016 6.755970194682537 1 2 20.267910584047613
pair_coeff 13 32 wf/cut 0.345065 6.671688068448729 1 2 20.015064205346185
pair_coeff 13 33 wf/cut 0.467649 7.066966231238362 1 2 21.200898693715086
pair_coeff 13 34 wf/cut 0.412285 6.848368288265007 1 2 20.54510486479502
pair_coeff 13 35 wf/cut 0.296584 6.23425905911194 1 2 18.70277717733582
pair_coeff 13 36 wf/cut 0.403751 6.702459807412386 1 2 20.10737942223716
pair_coeff 13 37 wf/cut 0.342865 6.494438889291505 1 2 19.483316667874515
pair_coeff 13 38 wf/cut 0.302642 6.4323262444775215 1 2 19.296978733432564
pair_coeff 13 39 wf/cut 0.299337 6.3906653903753785 1 2 19.171996171126136
pair_coeff 13 40 wf/cut 0.275346 6.756032732095156 1 2 20.268098196285468
pair_coeff 14 14 wf/cut 0.391642 6.629549396410893 1 2 19.88864818923268
pair_coeff 14 15 wf/cut 0.226621 6.016400811210637 1 2 18.049202433631912
pair_coeff 14 16 wf/cut 0.379530 6.483674128071082 1 2 19.451022384213246
pair_coeff 14 17 wf/cut 0.292745 6.276026354822916 1 2 18.828079064468746
pair_coeff 14 18 wf/cut 0.235159 6.2144055979415755 1 2 18.643216793824728
pair_coeff 14 19 wf/cut 0.230476 6.172787382997035 1 2 18.518362148991105
pair_coeff 14 20 wf/cut 0.196018 6.538787910119839 1 2 19.616363730359517
pair_coeff 14 21 wf/cut 0.209550 6.538369107168012 1 2 19.615107321504034
pair_coeff 14 22 wf/cut 0.229503 5.661533193978743 1 2 16.98459958193623
pair_coeff 14 23 wf/cut 0.204879 6.632390006238709 1 2 19.89717001871613
pair_coeff 14 24 wf/cut 0.206526 6.246381672050424 1 2 18.73914501615127
pair_coeff 14 25 wf/cut 0.302096 6.734778137463742 1 2 20.204334412391226
pair_coeff 14 26 wf/cut 0.213126 5.94370434405314 1 2 17.831113032159422
pair_coeff 14 27 wf/cut 0.233231 6.2248725061501835 1 2 18.67461751845055
pair_coeff 14 28 wf/cut 0.236259 6.402145618033878 1 2 19.206436854101636
pair_coeff 14 29 wf/cut 0.342598 6.6821466956694 1 2 20.0464400870082
pair_coeff 14 30 wf/cut 0.198196 6.3718164337361864 1 2 19.11544930120856
pair_coeff 14 31 wf/cut 0.199688 6.538652708676239 1 2 19.61595812602872
pair_coeff 14 32 wf/cut 0.265737 6.453725824442914 1 2 19.361177473328745
pair_coeff 14 33 wf/cut 0.388321 6.848555261309869 1 2 20.545665783929607
pair_coeff 14 34 wf/cut 0.332957 6.630097176272377 1 2 19.89029152881713
pair_coeff 14 35 wf/cut 0.217256 6.0166118728379825 1 2 18.049835618513946
pair_coeff 14 36 wf/cut 0.324423 6.484210545760694 1 2 19.45263163728208
pair_coeff 14 37 wf/cut 0.263537 6.276464594313065 1 2 18.829393782939196
pair_coeff 14 38 wf/cut 0.223314 6.2146578822218475 1 2 18.643973646665543
pair_coeff 14 39 wf/cut 0.220009 6.173021960210248 1 2 18.51906588063074
pair_coeff 14 40 wf/cut 0.196018 6.538787910119839 1 2 19.616363730359517
pair_coeff 15 15 wf/cut 0.061600 5.412669704115792 1 2 16.238009112347374
pair_coeff 15 16 wf/cut 0.214509 5.870633388669294 1 2 17.61190016600788
pair_coeff 15 17 wf/cut 0.127724 5.665328065098679 1 2 16.99598419529604
pair_coeff 15 18 wf/cut 0.070138 5.60931576883087 1 2 16.82794730649261
pair_coeff 15 19 wf/cut 0.065455 5.568478936337624 1 2 16.705436809012873
pair_coeff 15 20 wf/cut 0.030997 5.95253426830798 1 2 17.857602804923943
pair_coeff 15 21 wf/cut 0.044529 5.941730116730399 1 2 17.8251903501912
pair_coeff 15 22 wf/cut 0.064482 5.055066526249052 1 2 15.165199578747156
pair_coeff 15 23 wf/cut 0.039858 6.0388189375203165 1 2 18.116456812560948
pair_coeff 15 24 wf/cut 0.041505 5.650569731939204 1 2 16.951709195817614
pair_coeff 15 25 wf/cut 0.137075 6.123955851741878 1 2 18.371867555225634
pair_coeff 15 26 wf/cut 0.048105 5.343933138992498 1 2 16.031799416977496
pair_coeff 15 27 wf/cut 0.068210 5.620115241697351 1 2 16.860345725092053
pair_coeff 15 28 wf/cut 0.071238 5.79714638380999 1 2 17.39143915142997
pair_coeff 15 29 wf/cut 0.177576 6.069943102760143 1 2 18.20982930828043
pair_coeff 15 30 wf/cut 0.033175 5.7826589372196375 1 2 17.347976811658913
pair_coeff 15 31 wf/cut 0.034667 5.948302390882524 1 2 17.84490717264757
pair_coeff 15 32 wf/cut 0.100716 5.845003436795657 1 2 17.53501031038697
pair_coeff 15 33 wf/cut 0.223300 6.235536027214636 1 2 18.706608081643907
pair_coeff 15 34 wf/cut 0.167936 6.018117533790267 1 2 18.054352601370802
pair_coeff 15 35 wf/cut 0.052235 5.415473890209146 1 2 16.246421670627438
pair_coeff 15 36 wf/cut 0.159402 5.872398100194439 1 2 17.617194300583318
pair_coeff 15 37 wf/cut 0.098516 5.667732143982081 1 2 17.003196431946243
pair_coeff 15 38 wf/cut 0.058293 5.612162941341123 1 2 16.83648882402337
pair_coeff 15 39 wf/cut 0.054988 5.571364187563539 1 2 16.714092562690617
pair_coeff 15 40 wf/cut 0.030997 5.95253426830798 1 2 17.857602804923943
pair_coeff 16 16 wf/cut 0.027216 6.337782403912046 1 2 19.01334721173614
pair_coeff 16 17 wf/cut 0.280633 6.130180422228775 1 2 18.390541266686323
pair_coeff 16 18 wf/cut 0.223047 6.068649252074198 1 2 18.205947756222592
pair_coeff 16 19 wf/cut 0.218364 6.027019005823624 1 2 18.081057017470872
pair_coeff 16 20 wf/cut 0.183906 6.393147480752069 1 2 19.179442442256207
pair_coeff 16 21 wf/cut 0.197438 6.392683938124808 1 2 19.178051814374424
pair_coeff 16 22 wf/cut 0.217391 5.515750877499212 1 2 16.547252632497635
pair_coeff 16 23 wf/cut 0.192767 6.486724075272986 1 2 19.46017222581896
pair_coeff 16 24 wf/cut 0.194414 6.100672500483568 1 2 18.302017501450702
pair_coeff 16 25 wf/cut 0.289984 6.588935233441612 1 2 19.766805700324838
pair_coeff 16 26 wf/cut 0.201014 5.79796325726322 1 2 17.39388977178966
pair_coeff 16 27 wf/cut 0.221118 6.0791010484529915 1 2 18.237303145358975
pair_coeff 16 28 wf/cut 0.224147 6.256376087421608 1 2 18.769128262264825
pair_coeff 16 29 wf/cut 0.330485 6.536274979404401 1 2 19.608824938213203
pair_coeff 16 30 wf/cut 0.186084 6.226140636452508 1 2 18.678421909357525
pair_coeff 16 31 wf/cut 0.187576 6.392997387325535 1 2 19.178992161976602
pair_coeff 16 32 wf/cut 0.253625 6.307912958718467 1 2 18.9237388761554
pair_coeff 16 33 wf/cut 0.376209 6.702684222295407 1 2 20.10805266688622
pair_coeff 16 34 wf/cut 0.320845 6.484248553549719 1 2 19.452745660649157
pair_coeff 16 35 wf/cut 0.205144 5.870864049052838 1 2 17.612592147158516
pair_coeff 16 36 wf/cut 0.023134 6.338345846056568 1 2 19.015037538169704
pair_coeff 16 37 wf/cut 0.251425 6.130649043241044 1 2 18.391947129723132
pair_coeff 16 38 wf/cut 0.211202 6.0689241564117395 1 2 18.20677246923522
pair_coeff 16 39 wf/cut 0.207897 6.027275074473145 1 2 18.081825223419436
pair_coeff 16 40 wf/cut 0.183906 6.393147480752069 1 2 19.179442442256207
pair_coeff 17 17 wf/cut 0.193849 5.9233491242788805 1 2 17.770047372836643
pair_coeff 17 18 wf/cut 0.136263 5.8630821184928195 1 2 17.58924635547846
pair_coeff 17 19 wf/cut 0.131580 5.821644218417775 1 2 17.464932655253325
pair_coeff 17 20 wf/cut 0.097122 6.1899864646586105 1 2 18.569959393975832
pair_coeff 17 21 wf/cut 0.110653 6.188546099325202 1 2 18.565638297975607
pair_coeff 17 22 wf/cut 0.130606 5.30983190747035 1 2 15.929495722411051
pair_coeff 17 23 wf/cut 0.105983 6.282921319282791 1 2 18.848763957848373
pair_coeff 17 24 wf/cut 0.107629 5.896489952968157 1 2 17.68946985890447
pair_coeff 17 25 wf/cut 0.203200 6.382089400238762 1 2 19.146268200716285
pair_coeff 17 26 wf/cut 0.114230 5.59320394576633 1 2 16.77961183729899
pair_coeff 17 27 wf/cut 0.134334 5.873649240456693 1 2 17.62094772137008
pair_coeff 17 28 wf/cut 0.137363 6.050910374214647 1 2 18.152731122643942
pair_coeff 17 29 wf/cut 0.243701 6.328963417719822 1 2 18.986890253159466
pair_coeff 17 30 wf/cut 0.099300 6.022666584916778 1 2 18.067999754750335
pair_coeff 17 31 wf/cut 0.100792 6.189544117007458 1 2 18.568632351022373
pair_coeff 17 32 wf/cut 0.166841 6.101625831837799 1 2 18.304877495513395
pair_coeff 17 33 wf/cut 0.289424 6.495083547619462 1 2 19.485250642858386
pair_coeff 17 34 wf/cut 0.234061 6.277022750655092 1 2 18.831068251965277
pair_coeff 17 35 wf/cut 0.118359 5.665971807159278 1 2 16.997915421477835
pair_coeff 17 36 wf/cut 0.225527 6.131165252735328 1 2 18.393495758205983
pair_coeff 17 37 wf/cut 0.164641 5.924348407080925 1 2 17.773045221242775
pair_coeff 17 38 wf/cut 0.124417 5.863848431499796 1 2 17.591545294499387
pair_coeff 17 39 wf/cut 0.121113 5.822344488616284 1 2 17.46703346584885
pair_coeff 17 40 wf/cut 0.097122 6.1899864646586105 1 2 18.569959393975832
pair_coeff 18 18 wf/cut 0.078677 5.806155150598376 1 2 17.41846545179513
pair_coeff 18 19 wf/cut 0.073994 5.765149033334852 1 2 17.29544710000456
pair_coeff 18 20 wf/cut 0.039536 6.143860896897243 1 2 18.431582690691727
pair_coeff 18 21 wf/cut 0.053067 6.136530836242518 1 2 18.409592508727556
pair_coeff 18 22 wf/cut 0.073020 5.2521394224496145 1 2 15.756418267348844
pair_coeff 18 23 wf/cut 0.048396 6.232722071931244 1 2 18.698166215793734
pair_coeff 18 24 wf/cut 0.050043 5.845049472828402 1 2 17.535148418485207
pair_coeff 18 25 wf/cut 0.145613 6.3217567788528175 1 2 18.965270336558454
pair_coeff 18 26 wf/cut 0.056644 5.539473279208256 1 2 16.618419837624767
pair_coeff 18 27 wf/cut 0.076748 5.816985496228361 1 2 17.450956488685083
pair_coeff 18 28 wf/cut 0.079776 5.993977654615634 1 2 17.9819329638469
pair_coeff 18 29 wf/cut 0.186115 6.267859616819192 1 2 18.803578850457576
pair_coeff 18 30 wf/cut 0.041714 5.974983307333975 1 2 17.924949922001925
pair_coeff 18 31 wf/cut 0.043205 6.1411099770057245 1 2 18.42332993101717
pair_coeff 18 32 wf/cut 0.109254 6.042493928204347 1 2 18.12748178461304
pair_coeff 18 33 wf/cut 0.231838 6.433519247230287 1 2 19.300557741690863
pair_coeff 18 34 wf/cut 0.176474 6.216033392034327 1 2 18.648100176102982
pair_coeff 18 35 wf/cut 0.060773 5.611389850569513 1 2 16.834169551708538
pair_coeff 18 36 wf/cut 0.167940 6.070294170144763 1 2 18.21088251043429
pair_coeff 18 37 wf/cut 0.107055 5.865217375098184 1 2 17.595652125294553
pair_coeff 18 38 wf/cut 0.066831 5.808437279092397 1 2 17.425311837277192
pair_coeff 18 39 wf/cut 0.063527 5.767428643819603 1 2 17.302285931458808
pair_coeff 18 40 wf/cut 0.039536 6.143860896897243 1 2 18.431582690691727
pair_coeff 19 19 wf/cut 0.069311 5.724362787504792 1 2 17.173088362514378
pair_coeff 19 20 wf/cut 0.034853 6.10586575299424 1 2 18.31759725898272
pair_coeff 19 21 wf/cut 0.048384 6.0967512192398505 1 2 18.290253657719553
pair_coeff 19 22 wf/cut 0.068337 5.211108138159037 1 2 15.633324414477112
pair_coeff 19 23 wf/cut 0.043714 6.1934329156331 1 2 18.5802987468993
pair_coeff 19 24 wf/cut 0.045360 5.805442925019495 1 2 17.416328775058485
pair_coeff 19 25 wf/cut 0.140930 6.280274061428144 1 2 18.84082218428443
pair_coeff 19 26 wf/cut 0.051961 5.499319146540279 1 2 16.497957439620837
pair_coeff 19 27 wf/cut 0.072065 5.776024303801226 1 2 17.328072911403677
pair_coeff 19 28 wf/cut 0.075093 5.953096206763187 1 2 17.85928862028956
pair_coeff 19 29 wf/cut 0.181432 6.226290621468162 1 2 18.678871864404485
pair_coeff 19 30 wf/cut 0.037031 5.936496588820257 1 2 17.80948976646077
pair_coeff 19 31 wf/cut 0.038522 6.10236911417194 1 2 18.30710734251582
pair_coeff 19 32 wf/cut 0.104571 6.001202451726246 1 2 18.003607355178737
pair_coeff 19 33 wf/cut 0.227155 6.391918936768799 1 2 19.175756810306396
pair_coeff 19 34 wf/cut 0.171791 6.174477574070478 1 2 18.52343272221143
pair_coeff 19 35 wf/cut 0.056090 5.571011278043507 1 2 16.71303383413052
pair_coeff 19 36 wf/cut 0.163258 6.028753613252821 1 2 18.086260839758463
pair_coeff 19 37 wf/cut 0.102372 5.823949131867462 1 2 17.471847395602385
pair_coeff 19 38 wf/cut 0.062148 5.767856883865312 1 2 17.303570651595933
pair_coeff 19 39 wf/cut 0.058844 5.726983480603789 1 2 17.18095044181137
pair_coeff 19 40 wf/cut 0.034853 6.10586575299424 1 2 18.31759725898272
pair_coeff 20 21 wf/cut 0.013926 6.5199210046589675 1 2 19.5597630139769
pair_coeff 20 22 wf/cut 0.033879 5.587459907599181 1 2 16.76237972279754
pair_coeff 20 23 wf/cut 0.009256 6.649574443493311 1 2 19.948723330479933
pair_coeff 20 24 wf/cut 0.010902 6.242374503621665 1 2 18.727123510864995
pair_coeff 20 25 wf/cut 0.106472 6.648355967009086 1 2 19.945067901027258
pair_coeff 20 26 wf/cut 0.017503 5.903567074401621 1 2 17.71070122320486
pair_coeff 20 27 wf/cut 0.037607 6.155943831058615 1 2 18.467831493175847
pair_coeff 20 28 wf/cut 0.040635 6.331503643570952 1 2 18.994510930712856
pair_coeff 20 29 wf/cut 0.146974 6.593018960515583 1 2 19.77905688154675
pair_coeff 20 32 wf/cut 0.070113 6.372029116976672 1 2 19.116087350930016
pair_coeff 20 33 wf/cut 0.192697 6.757970683221281 1 2 20.273912049663842
pair_coeff 20 34 wf/cut 0.137333 6.5414250271565235 1 2 19.62427508146957
pair_coeff 20 35 wf/cut 0.021632 5.967018638311549 1 2 17.901055914934645
pair_coeff 20 36 wf/cut 0.128800 6.395882535691026 1 2 19.187647607073078
pair_coeff 20 37 wf/cut 0.067914 6.194931490620908 1 2 18.584794471862722
pair_coeff 20 38 wf/cut 0.027690 6.155796177211015 1 2 18.467388531633045
pair_coeff 20 39 wf/cut 0.024386 6.119051758363574 1 2 18.357155275090722
pair_coeff 21 21 wf/cut 0.027458 6.480069420606985 1 2 19.440208261820956
pair_coeff 21 22 wf/cut 0.047411 5.581642130693901 1 2 16.7449263920817
pair_coeff 21 23 wf/cut 0.022787 6.583002517343036 1 2 19.74900755202911
pair_coeff 21 24 wf/cut 0.024433 6.191552500203247 1 2 18.574657500609742
pair_coeff 21 25 wf/cut 0.120004 6.646999738911693 1 2 19.94099921673508
pair_coeff 21 26 wf/cut 0.031034 5.878598106878971 1 2 17.63579432063691
pair_coeff 21 27 wf/cut 0.051138 6.1478586796466335 1 2 18.443576038939902
pair_coeff 21 28 wf/cut 0.054167 6.324516380690015 1 2 18.973549142070045
pair_coeff 21 29 wf/cut 0.160505 6.592313711480712 1 2 19.776941134442136
pair_coeff 21 30 wf/cut 0.016104 6.340969704607503 1 2 19.02290911382251
pair_coeff 21 31 wf/cut 0.017596 6.5013402123206046 1 2 19.504020636961812
pair_coeff 21 32 wf/cut 0.083645 6.369348945541728 1 2 19.108046836625185
pair_coeff 21 33 wf/cut 0.206229 6.757540572332879 1 2 20.27262171699864
pair_coeff 21 34 wf/cut 0.150865 6.540596793679068 1 2 19.621790381037204
pair_coeff 21 35 wf/cut 0.035164 5.947844531230358 1 2 17.843533593691074
pair_coeff 21 36 wf/cut 0.142331 6.39500222582037 1 2 19.18500667746111
pair_coeff 21 37 wf/cut 0.081445 6.192166186380409 1 2 18.57649855914123
pair_coeff 21 38 wf/cut 0.041222 6.142414836822247 1 2 18.42724451046674
pair_coeff 21 39 wf/cut 0.037917 6.102763659737872 1 2 18.308290979213616
pair_coeff 21 40 wf/cut 0.013926 6.5199210046589675 1 2 19.5597630139769
pair_coeff 22 22 wf/cut 0.067364 4.698227190160832 1 2 14.094681570482496
pair_coeff 22 23 wf/cut 0.042740 5.6772849911904 1 2 17.0318549735712
pair_coeff 22 24 wf/cut 0.044387 5.289807269665101 1 2 15.869421808995302
pair_coeff 22 25 wf/cut 0.139957 5.768554114508845 1 2 17.305662343526535
pair_coeff 22 26 wf/cut 0.050987 4.984686027270456 1 2 14.954058081811368
pair_coeff 22 27 wf/cut 0.071091 5.262912382415455 1 2 15.788737147246366
pair_coeff 22 28 wf/cut 0.074120 5.439975772862831 1 2 16.319927318588494
pair_coeff 22 29 wf/cut 0.180458 5.714850862757114 1 2 17.144552588271342
pair_coeff 22 30 wf/cut 0.036057 5.418902704026212 1 2 16.256708112078634
pair_coeff 22 31 wf/cut 0.037549 5.585489758070483 1 2 16.756469274211447
pair_coeff 22 32 wf/cut 0.103598 5.489037080971375 1 2 16.467111242914125
pair_coeff 22 33 wf/cut 0.226182 5.8806376350894025 1 2 17.641912905268207
pair_coeff 22 34 wf/cut 0.170818 5.662987686021554 1 2 16.988963058064662
pair_coeff 22 35 wf/cut 0.055117 5.056931123036382 1 2 15.170793369109145
pair_coeff 22 36 wf/cut 0.162284 5.517215784587296 1 2 16.551647353761886
pair_coeff 22 37 wf/cut 0.101398 5.311696859115723 1 2 15.935090577347168
pair_coeff 22 38 wf/cut 0.061175 5.254183030641423 1 2 15.762549091924269
pair_coeff 22 39 wf/cut 0.057870 5.213062357159386 1 2 15.639187071478158
pair_coeff 22 40 wf/cut 0.033879 5.587459907599181 1 2 16.76237972279754
pair_coeff 23 23 wf/cut 0.013420 6.688853536606121 1 2 20.066560609818364
pair_coeff 23 24 wf/cut 0.019763 6.29527868599085 1 2 18.885836057972547
pair_coeff 23 25 wf/cut 0.085206 6.741392723436803 1 2 20.22417817031041
pair_coeff 23 26 wf/cut 0.026364 5.978305270632397 1 2 17.93491581189719
pair_coeff 23 27 wf/cut 0.000342 6.244253298502354 1 2 18.732759895507062
pair_coeff 23 28 wf/cut 0.000366 6.4204818546224995 1 2 19.261445563867497
pair_coeff 23 29 wf/cut 0.071890 6.686432938070228 1 2 20.059298814210685
pair_coeff 23 30 wf/cut 0.011434 6.460111302128625 1 2 19.380333906385875
pair_coeff 23 31 wf/cut 0.012925 6.617996254538358 1 2 19.853988763615074
pair_coeff 23 32 wf/cut 0.078974 6.4641118645001 1 2 19.3923355935003
pair_coeff 23 33 wf/cut 0.073358 6.85155566549562 1 2 20.55466699648686
pair_coeff 23 34 wf/cut 0.080693 6.634779187210656 1 2 19.90433756163197
pair_coeff 23 35 wf/cut 0.030493 6.046847416569171 1 2 18.14054224970751
pair_coeff 23 36 wf/cut 0.061166 6.489185414364156 1 2 19.467556243092467
pair_coeff 23 37 wf/cut 0.076775 6.2869559403051 1 2 18.860867820915303
pair_coeff 23 38 wf/cut 0.036551 6.240136548485556 1 2 18.72040964545667
pair_coeff 23 39 wf/cut 0.033247 6.2011686854634664 1 2 18.6035060563904
pair_coeff 23 40 wf/cut 0.009256 6.649574443493311 1 2 19.948723330479933
pair_coeff 24 24 wf/cut 0.021409 5.902825373061459 1 2 17.708476119184375
pair_coeff 24 25 wf/cut 0.116980 6.355020618222843 1 2 19.065061854668528
pair_coeff 24 26 wf/cut 0.028010 5.588184701124206 1 2 16.764554103372618
pair_coeff 24 27 wf/cut 0.048114 5.856453272809193 1 2 17.56935981842758
pair_coeff 24 28 wf/cut 0.051143 6.03282984385001 1 2 18.09848953155003
pair_coeff 24 29 wf/cut 0.157481 6.300272873273843 1 2 18.90081861982153
pair_coeff 24 30 wf/cut 0.013080 6.05885560137348 1 2 18.17656680412044
pair_coeff 24 31 wf/cut 0.014572 6.219293562690735 1 2 18.657880688072204
pair_coeff 24 32 wf/cut 0.080621 6.077365593674358 1 2 18.232096781023074
pair_coeff 24 33 wf/cut 0.203205 6.465539023765016 1 2 19.396617071295047
pair_coeff 24 34 wf/cut 0.147841 6.248599086448351 1 2 18.745797259345053
pair_coeff 24 35 wf/cut 0.032140 5.6574738585901345 1 2 16.972421575770404
pair_coeff 24 36 wf/cut 0.139307 6.102951668547555 1 2 18.308855005642666
pair_coeff 24 37 wf/cut 0.078421 5.900160965208208 1 2 17.700482895624624
pair_coeff 24 38 wf/cut 0.038198 5.85153222065546 1 2 17.55459666196638
pair_coeff 24 39 wf/cut 0.034893 5.812153931855011 1 2 17.436461795565034
pair_coeff 24 40 wf/cut 0.010902 6.242374503621665 1 2 18.727123510864995
pair_coeff 25 25 wf/cut 0.062978 6.840818860381698 1 2 20.522456581145093
pair_coeff 25 26 wf/cut 0.123581 6.051811079871612 1 2 18.155433239614837
pair_coeff 25 27 wf/cut 0.001064 6.332285213812248 1 2 18.996855641436742
pair_coeff 25 28 wf/cut 0.001085 6.509542326637676 1 2 19.528626979913028
pair_coeff 25 29 wf/cut 0.425474 6.7877218996841355 1 2 20.363165699052406
pair_coeff 25 30 wf/cut 0.108651 6.481102402445426 1 2 19.44330720733628
pair_coeff 25 31 wf/cut 0.110142 6.647901648052044 1 2 19.94370494415613
pair_coeff 25 32 wf/cut 0.176191 6.560327886240045 1 2 19.680983658720134
pair_coeff 25 33 wf/cut 0.484160 6.953839371357665 1 2 20.861518114072993
pair_coeff 25 34 wf/cut 0.381459 6.735769622233203 1 2 20.20730886669961
pair_coeff 25 35 wf/cut 0.127710 6.1245540687340725 1 2 18.37366220620222
pair_coeff 25 36 wf/cut 0.086889 6.589926019306955 1 2 19.769778057920867
pair_coeff 25 37 wf/cut 0.173991 6.38305646617526 1 2 19.14916939852578
pair_coeff 25 38 wf/cut 0.133768 6.322442926130092 1 2 18.967328778390275
pair_coeff 25 39 wf/cut 0.130463 6.280926022691235 1 2 18.842778068073706
pair_coeff 25 40 wf/cut 0.106472 6.648355967009086 1 2 19.945067901027258
pair_coeff 26 26 wf/cut 0.034611 5.278051554722805 1 2 15.834154664168416
pair_coeff 26 27 wf/cut 0.054715 5.550632394717641 1 2 16.651897184152922
pair_coeff 26 28 wf/cut 0.057743 5.727313013729271 1 2 17.18193904118781
pair_coeff 26 29 wf/cut 0.164082 5.997401234701861 1 2 17.99220370410558
pair_coeff 26 30 wf/cut 0.019681 5.729200436106479 1 2 17.187601308319437
pair_coeff 26 31 wf/cut 0.021172 5.893502125092778 1 2 17.680506375278334
pair_coeff 26 32 wf/cut 0.087222 5.77355467816977 1 2 17.32066403450931
pair_coeff 26 33 wf/cut 0.209805 6.162846524069043 1 2 18.48853957220713
pair_coeff 26 34 wf/cut 0.154442 5.945670315140756 1 2 17.837010945422268
pair_coeff 26 35 wf/cut 0.038740 5.3486854588231765 1 2 16.04605637646953
pair_coeff 26 36 wf/cut 0.145908 5.799973083941243 1 2 17.39991925182373
pair_coeff 26 37 wf/cut 0.085022 5.596251927245512 1 2 16.788755781736537
pair_coeff 26 38 wf/cut 0.044798 5.544164768287125 1 2 16.632494304861375
pair_coeff 26 39 wf/cut 0.041494 5.504054682438701 1 2 16.512164047316105
pair_coeff 26 40 wf/cut 0.017503 5.903567074401621 1 2 17.71070122320486
pair_coeff 27 27 wf/cut 0.055422 5.8277356350076115 1 2 17.483206905022833
pair_coeff 27 28 wf/cut 0.057461 6.0048083393750415 1 2 18.014425018125124
pair_coeff 27 29 wf/cut 0.184186 6.278368151196274 1 2 18.83510445358882
pair_coeff 27 30 wf/cut 0.039785 5.986861716352022 1 2 17.960585149056065
pair_coeff 27 31 wf/cut 0.041277 6.152881477214971 1 2 18.458644431644913
pair_coeff 27 32 wf/cut 0.107326 6.053140955180234 1 2 18.159422865540705
pair_coeff 27 33 wf/cut 0.229910 6.444000765960297 1 2 19.33200229788089
pair_coeff 27 34 wf/cut 0.174546 6.226529663564308 1 2 18.679588990692924
pair_coeff 27 35 wf/cut 0.058845 5.622457081906772 1 2 16.867371245720314
pair_coeff 27 36 wf/cut 0.001228 6.080799532766481 1 2 18.242398598299445
pair_coeff 27 37 wf/cut 0.105126 5.875867449320084 1 2 17.627602347960252
pair_coeff 27 38 wf/cut 0.064903 5.819413545043322 1 2 17.458240635129968
pair_coeff 27 39 wf/cut 0.061598 5.778457730344957 1 2 17.335373191034872
pair_coeff 27 40 wf/cut 0.037607 6.155943831058615 1 2 18.467831493175847
pair_coeff 28 28 wf/cut 0.059908 6.1818125994432265 1 2 18.54543779832968
pair_coeff 28 29 wf/cut 0.187215 6.4556028384801145 1 2 19.366808515440344
pair_coeff 28 30 wf/cut 0.042814 6.162677260323304 1 2 18.488031780969912
pair_coeff 28 31 wf/cut 0.044305 6.329122536684595 1 2 18.987367610053788
pair_coeff 28 32 wf/cut 0.110354 6.230341958421634 1 2 18.691025875264902
pair_coeff 28 33 wf/cut 0.232938 6.621259842822526 1 2 19.863779528467578
pair_coeff 28 34 wf/cut 0.177574 6.403800703379438 1 2 19.211402110138312
pair_coeff 28 35 wf/cut 0.061873 5.7993639894571976 1 2 17.39809196837159
pair_coeff 28 36 wf/cut 0.001252 6.258048801889918 1 2 18.774146405669754
pair_coeff 28 37 wf/cut 0.108154 6.053088642675554 1 2 18.159265928026663
pair_coeff 28 38 wf/cut 0.067931 5.9963870692049515 1 2 17.989161207614856
pair_coeff 28 39 wf/cut 0.064626 5.955407688864699 1 2 17.866223066594095
pair_coeff 28 40 wf/cut 0.040635 6.331503643570952 1 2 18.994510930712856
pair_coeff 29 29 wf/cut 0.293553 6.734901221669089 1 2 20.204703665007266
pair_coeff 29 30 wf/cut 0.149152 6.425928662140226 1 2 19.277785986420678
pair_coeff 29 31 wf/cut 0.150644 6.592808608254519 1 2 19.77842582476356
pair_coeff 29 32 wf/cut 0.216693 6.5069139355650485 1 2 19.520741806695145
pair_coeff 29 33 wf/cut 0.339277 6.901174934210456 1 2 20.703524802631367
pair_coeff 29 34 wf/cut 0.283913 6.682893550119813 1 2 20.048680650359437
pair_coeff 29 35 wf/cut 0.168212 6.070294170144763 1 2 18.21088251043429
pair_coeff 29 36 wf/cut 0.275379 6.53700493974828 1 2 19.61101481924484
pair_coeff 29 37 wf/cut 0.214493 6.329613164394258 1 2 18.988839493182773
pair_coeff 29 38 wf/cut 0.174270 6.268290266697097 1 2 18.80487080009129
pair_coeff 29 39 wf/cut 0.170965 6.226677571408917 1 2 18.68003271422675
pair_coeff 29 40 wf/cut 0.146974 6.593018960515583 1 2 19.77905688154675
pair_coeff 30 31 wf/cut 0.006243 6.436867325811939 1 2 19.310601977435816
pair_coeff 30 32 wf/cut 0.072292 6.2043654791136875 1 2 18.613096437341063
pair_coeff 30 33 wf/cut 0.194875 6.590992227279316 1 2 19.77297668183795
pair_coeff 30 34 wf/cut 0.139512 6.374322689731052 1 2 19.122968069193156
pair_coeff 30 35 wf/cut 0.023810 5.794680761693587 1 2 17.38404228508076
pair_coeff 30 36 wf/cut 0.130978 6.228734363673756 1 2 18.68620309102127
pair_coeff 30 37 wf/cut 0.070092 6.027237821338098 1 2 18.081713464014296
pair_coeff 30 38 wf/cut 0.029868 5.985230649978958 1 2 17.955691949936874
pair_coeff 30 39 wf/cut 0.026564 5.947631895281645 1 2 17.842895685844933
pair_coeff 31 31 wf/cut 0.007734 6.567831037515117 1 2 19.703493112545353
pair_coeff 31 32 wf/cut 0.073783 6.371180012524027 1 2 19.11354003757208
pair_coeff 31 33 wf/cut 0.196367 6.757844212311977 1 2 20.273532636935933
pair_coeff 31 34 wf/cut 0.141003 6.541152469250684 1 2 19.623457407752053
pair_coeff 31 35 wf/cut 0.025302 5.958948966149641 1 2 17.87684689844892
pair_coeff 31 36 wf/cut 0.132469 6.395617784448214 1 2 19.18685335334464
pair_coeff 31 37 wf/cut 0.071583 6.194052355515639 1 2 18.58215706654692
pair_coeff 31 38 wf/cut 0.031360 6.150442231391871 1 2 18.451326694175613
pair_coeff 31 39 wf/cut 0.028055 6.1123674095484715 1 2 18.337102228645414
pair_coeff 32 32 wf/cut 0.139832 6.280338147956703 1 2 18.841014443870108
pair_coeff 32 33 wf/cut 0.262416 6.672807379130834 1 2 20.018422137392502
pair_coeff 32 34 wf/cut 0.207052 6.454996866244807 1 2 19.364990598734423
pair_coeff 32 35 wf/cut 0.091351 5.846082838683163 1 2 17.53824851604949
pair_coeff 32 36 wf/cut 0.198518 6.309181376440496 1 2 18.92754412932149
pair_coeff 32 37 wf/cut 0.137633 6.103047888395006 1 2 18.30914366518502
pair_coeff 32 38 wf/cut 0.097409 6.043739153604026 1 2 18.131217460812078
pair_coeff 32 39 wf/cut 0.094104 6.002359484884067 1 2 18.007078454652202
pair_coeff 32 40 wf/cut 0.070113 6.372029116976672 1 2 19.116087350930016
pair_coeff 33 33 wf/cut 0.385000 7.067563273437359 1 2 21.202689820312077
pair_coeff 33 34 wf/cut 0.329636 6.849136659067028 1 2 20.547409977201085
pair_coeff 33 35 wf/cut 0.213935 6.235761878631987 1 2 18.70728563589596
pair_coeff 33 36 wf/cut 0.321102 6.703247958074066 1 2 20.109743874222197
pair_coeff 33 37 wf/cut 0.260216 6.49554680247315 1 2 19.48664040741945
pair_coeff 33 38 wf/cut 0.219993 6.433800819712532 1 2 19.3014024591376
pair_coeff 33 39 wf/cut 0.216688 6.3921696304391835 1 2 19.17650889131755
pair_coeff 33 40 wf/cut 0.192697 6.757970683221281 1 2 20.273912049663842
pair_coeff 34 34 wf/cut 0.274272 6.630885251270346 1 2 19.892655753811038
pair_coeff 34 35 wf/cut 0.158571 6.018506537122348 1 2 18.055519611367043
pair_coeff 34 36 wf/cut 0.265738 6.485029527646095 1 2 19.455088582938284
pair_coeff 34 37 wf/cut 0.204852 6.27772691468288 1 2 18.83318074404864
pair_coeff 34 38 wf/cut 0.164629 6.216488307385695 1 2 18.649464922157083
pair_coeff 34 39 wf/cut 0.161324 6.17490549231641 1 2 18.52471647694923
pair_coeff 34 40 wf/cut 0.137333 6.5414250271565235 1 2 19.62427508146957
pair_coeff 35 35 wf/cut 0.042870 5.4194558891562785 1 2 16.258367667468836
pair_coeff 35 36 wf/cut 0.150037 5.8728226163551005 1 2 17.6184678490653
pair_coeff 35 37 wf/cut 0.089151 5.6688305293155095 1 2 17.006491587946527
pair_coeff 35 38 wf/cut 0.048928 5.615420402551611 1 2 16.846261207654834
pair_coeff 35 39 wf/cut 0.045623 5.575027083025114 1 2 16.725081249075345
pair_coeff 35 40 wf/cut 0.021632 5.967018638311549 1 2 17.901055914934645
pair_coeff 36 36 wf/cut 0.019052 6.339149093005715 1 2 19.017447279017144
pair_coeff 36 37 wf/cut 0.196319 6.131909094415353 1 2 18.39572728324606
pair_coeff 36 38 wf/cut 0.156095 6.07081046198845 1 2 18.21243138596535
pair_coeff 36 39 wf/cut 0.152791 6.029219810679759 1 2 18.087659432039278
pair_coeff 36 40 wf/cut 0.128800 6.395882535691026 1 2 19.187647607073078
pair_coeff 37 37 wf/cut 0.135433 5.925773208988131 1 2 17.777319626964392
pair_coeff 37 38 wf/cut 0.095209 5.866481553533799 1 2 17.599444660601396
pair_coeff 37 39 wf/cut 0.091905 5.82512551794993 1 2 17.47537655384979
pair_coeff 37 40 wf/cut 0.067914 6.194931490620908 1 2 18.584794471862722
pair_coeff 38 38 wf/cut 0.054986 5.811826808320624 1 2 17.43548042496187
pair_coeff 38 39 wf/cut 0.051681 5.771184604473262 1 2 17.313553813419787
pair_coeff 38 40 wf/cut 0.027690 6.155796177211015 1 2 18.467388531633045
pair_coeff 39 39 wf/cut 0.048377 5.730699270006254 1 2 17.192097810018762
pair_coeff 39 40 wf/cut 0.024386 6.119051758363574 1 2 18.357155275090722
pair_coeff 40 40 wf/cut 0.000395 6.921680089176746 1 11 20.76504026753024
pair_coeff 20 40 wf/cut 0.000395 6.921680089176746 1 11 20.76504026753024
pair_coeff 20 20 wf/cut 0.000395 6.921680089176746 1 11 20.76504026753024
pair_coeff 10 20 wf/cut 0.002986 6.718011650959061 1 4 20.154034952877183
pair_coeff 10 40 wf/cut 0.002986 6.718011650959061 1 4 20.154034952877183
pair_coeff 20 30 wf/cut 0.002573 6.745752996427961 1 4 20.237258989283884
pair_coeff 20 31 wf/cut 0.004064 6.883184689300606 1 4 20.649554067901818
pair_coeff 30 40 wf/cut 0.002573 6.745752996427961 1 4 20.237258989283884
pair_coeff 31 40 wf/cut 0.004064 6.883184689300606 1 4 20.649554067901818
pair_coeff 3 3 coul/debye 35.
pair_coeff 3 5 coul/debye 35.
pair_coeff 3 7 coul/debye 35.
pair_coeff 3 8 coul/debye 35.
pair_coeff 3 16 coul/debye 35.
pair_coeff 3 23 coul/debye 35.
pair_coeff 3 25 coul/debye 35.
pair_coeff 3 36 coul/debye 35.
pair_coeff 5 5 coul/debye 35.
pair_coeff 5 7 coul/debye 35.
pair_coeff 5 8 coul/debye 35.
pair_coeff 5 16 coul/debye 35.
pair_coeff 5 23 coul/debye 35.
pair_coeff 5 25 coul/debye 35.
pair_coeff 5 27 coul/debye 35.
pair_coeff 5 28 coul/debye 35.
pair_coeff 5 36 coul/debye 35.
pair_coeff 7 7 coul/debye 35.
pair_coeff 7 8 coul/debye 35.
pair_coeff 7 16 coul/debye 35.
pair_coeff 7 23 coul/debye 35.
pair_coeff 7 25 coul/debye 35.
pair_coeff 7 27 coul/debye 35.
pair_coeff 7 28 coul/debye 35.
pair_coeff 7 36 coul/debye 35.
pair_coeff 8 8 coul/debye 35.
pair_coeff 8 16 coul/debye 35.
pair_coeff 8 23 coul/debye 35.
pair_coeff 8 25 coul/debye 35.
pair_coeff 8 27 coul/debye 35.
pair_coeff 8 28 coul/debye 35.
pair_coeff 8 36 coul/debye 35.
pair_coeff 16 16 coul/debye 35.
pair_coeff 16 23 coul/debye 35.
pair_coeff 16 25 coul/debye 35.
pair_coeff 16 27 coul/debye 35.
pair_coeff 16 28 coul/debye 35.
pair_coeff 16 36 coul/debye 35.
pair_coeff 23 23 coul/debye 35.
pair_coeff 23 25 coul/debye 35.
pair_coeff 23 36 coul/debye 35.
pair_coeff 25 25 coul/debye 35.
pair_coeff 25 27 coul/debye 35.
pair_coeff 25 28 coul/debye 35.
pair_coeff 25 36 coul/debye 35.
pair_coeff 27 27 coul/debye 35.
pair_coeff 27 28 coul/debye 35.
pair_coeff 27 36 coul/debye 35.
pair_coeff 28 28 coul/debye 35.
pair_coeff 28 36 coul/debye 35.
pair_coeff 36 36 coul/debye 35.
pair_coeff 3 27 coul/debye 35.
pair_coeff 3 28 coul/debye 35.
pair_coeff 23 27 coul/debye 35.
pair_coeff 23 28 coul/debye 35.

special_bonds fene
Finding 1-2 1-3 1-4 neighbors ...
  special bond factors lj:    0        1        1       
  special bond factors coul:  0        1        1       
     2 = max # of 1-2 neighbors
     6 = max # of special neighbors
  special bonds CPU = 0.000 seconds
neighbor  3.5 multi
neigh_modify  every 10 delay 0

comm_style    tiled

timer timeout 35:50:00
New timer settings: style=normal  mode=nosync  timeout=11:50:00

velocity      all create $T 494211
velocity      all create 340 494211
fix           fxnve   all nve
fix           fxlange all langevin $T $T 40000.0 32784
fix           fxlange all langevin 340 $T 40000.0 32784
fix           fxlange all langevin 340 340 40000.0 32784

dump          1 all custom 100000 $d-$T.xyz id mol type q xu yu zu
dump          1 all custom 100000 TIA_WT-$T.xyz id mol type q xu yu zu
dump          1 all custom 100000 TIA_WT-340.xyz id mol type q xu yu zu
dump_modify   1 sort id

#compute       rad all gyration
#compute       dis all pair/local dist
#compute       maximo all reduce max c_dis
#compute       mean all reduce ave c_dis

thermo        1000000
thermo_style  custom step pe temp  press ke lx ly lz pzz  spcpu density
thermo_modify flush yes

restart      10000000 restart$T
restart      10000000 restart340

####Minimization

timestep 0.01
run 2000
Neighbor list info ...
  update every 10 steps, delay 0 steps, check yes
  max neighbors/atom: 2000, page size: 100000
  master list distance cutoff = 38.5
  ghost atom cutoff = 38.5
  binsize = 8.7926654, bins = 35 35 35
  2 neighbor lists, perpetual/occasional/extra = 2 0 0
  (1) pair wf/cut, perpetual
      attributes: half, newton on
      pair build: half/multi/newton
      stencil: half/multi/3d/newton
      bin: standard
  (2) pair coul/debye, perpetual, skip from (1)
      attributes: half, newton on
      pair build: skip
      stencil: none
      bin: none
Per MPI rank memory allocation (min/avg/max) = 8.891 | 8.953 | 9.133 Mbytes
Step PotEng Temp Press KinEng Lx Ly Lz Pzz S/CPU Density 
       0   -13.356653          340   0.42329192     97.29364          300          300          300   0.30311351            0 0.00066940445 
    2000   -11.350431    333.09365   0.40415582    95.317333          300          300          300   0.30194241    41759.715 0.00066940445 
Loop time of 0.0479077 on 6 procs for 2000 steps with 97 atoms

Performance: 36.069 ns/day, 0.665 hours/ns, 41746.899 timesteps/s
99.7% CPU use with 6 MPI tasks x no OpenMP threads

MPI task timing breakdown:
Section |  min time  |  avg time  |  max time  |%varavg| %total
---------------------------------------------------------------
Pair    | 0.00050426 | 0.0033215  | 0.016786   |  10.4 |  6.93
Bond    | 7.2002e-05 | 0.00042764 | 0.0021212  |   0.0 |  0.89
Neigh   | 0          | 0          | 0          |   0.0 |  0.00
Comm    | 0.017453   | 0.038969   | 0.044049   |   4.9 | 81.34
Output  | 2.3127e-05 | 2.9564e-05 | 3.6001e-05 |   0.0 |  0.06
Modify  | 0.0002687  | 0.0020119  | 0.010504   |   8.5 |  4.20
Other   |            | 0.003148   |            |       |  6.57

Nlocal:        16.1667 ave          96 max           0 min
Histogram: 5 0 0 0 0 0 0 0 0 1
Nghost:        39.5000 ave          57 max           0 min
Histogram: 1 0 0 0 1 0 0 0 1 3
Neighs:        73.5000 ave         436 max           0 min
Histogram: 5 0 0 0 0 0 0 0 0 1

Total # of neighbors = 441
Ave neighs/atom = 4.5463918
Ave special neighs/atom = 1.9793814
Neighbor list builds = 0
Dangerous builds = 0

timestep 0.1
run 2000
Per MPI rank memory allocation (min/avg/max) = 8.891 | 8.953 | 9.133 Mbytes
Step PotEng Temp Press KinEng Lx Ly Lz Pzz S/CPU Density 
    2000   -11.350431    333.09365   0.40415582    95.317333          300          300          300   0.30194241            0 0.00066940445 
    4000    4.4768445    281.06141  -0.17009253    80.427905          300          300          300  -0.11730589    42295.787 0.00066940445 
Loop time of 0.0472984 on 6 procs for 2000 steps with 97 atoms

Performance: 365.340 ns/day, 0.066 hours/ns, 42284.771 timesteps/s
99.8% CPU use with 6 MPI tasks x no OpenMP threads

MPI task timing breakdown:
Section |  min time  |  avg time  |  max time  |%varavg| %total
---------------------------------------------------------------
Pair    | 0.00052261 | 0.0033159  | 0.016798   |  10.5 |  7.01
Bond    | 6.7234e-05 | 0.00043054 | 0.0021436  |   0.0 |  0.91
Neigh   | 0          | 0          | 0          |   0.0 |  0.00
Comm    | 0.016873   | 0.038444   | 0.043564   |   4.9 | 81.28
Output  | 2.0981e-05 | 2.6941e-05 | 3.0994e-05 |   0.0 |  0.06
Modify  | 0.00023007 | 0.0020045  | 0.010414   |   8.4 |  4.24
Other   |            | 0.003076   |            |       |  6.50

Nlocal:        16.1667 ave          96 max           0 min
Histogram: 5 0 0 0 0 0 0 0 0 1
Nghost:        39.5000 ave          57 max           0 min
Histogram: 1 0 0 0 1 0 0 0 1 3
Neighs:        73.5000 ave         436 max           0 min
Histogram: 5 0 0 0 0 0 0 0 0 1

Total # of neighbors = 441
Ave neighs/atom = 4.5463918
Ave special neighs/atom = 1.9793814
Neighbor list builds = 0
Dangerous builds = 0

timestep 1
run 2000
Per MPI rank memory allocation (min/avg/max) = 8.891 | 8.953 | 9.133 Mbytes
Step PotEng Temp Press KinEng Lx Ly Lz Pzz S/CPU Density 
    4000    4.4768445    281.06141  -0.17009253    80.427905          300          300          300  -0.11730589            0 0.00066940445 
    6000    11.244317    279.18468  -0.11201182    79.890863          300          300          300  0.043652983    40748.102 0.00066940445 
Loop time of 0.0491027 on 6 procs for 2000 steps with 97 atoms

Performance: 3519.154 ns/day, 0.007 hours/ns, 40730.955 timesteps/s
99.3% CPU use with 6 MPI tasks x no OpenMP threads

MPI task timing breakdown:
Section |  min time  |  avg time  |  max time  |%varavg| %total
---------------------------------------------------------------
Pair    | 0.00054288 | 0.0033293  | 0.016671   |  10.3 |  6.78
Bond    | 7.987e-05  | 0.00043853 | 0.0021265  |   0.0 |  0.89
Neigh   | 0.00028014 | 0.00028439 | 0.00028992 |   0.0 |  0.58
Comm    | 0.018516   | 0.039935   | 0.045019   |   4.8 | 81.33
Output  | 2.3842e-05 | 3.2107e-05 | 4.2915e-05 |   0.0 |  0.07
Modify  | 0.00026321 | 0.0020432  | 0.010448   |   8.3 |  4.16
Other   |            | 0.003041   |            |       |  6.19

Nlocal:        16.1667 ave          95 max           0 min
Histogram: 5 0 0 0 0 0 0 0 0 1
Nghost:        38.8333 ave          58 max           0 min
Histogram: 1 0 0 0 1 0 0 0 3 1
Neighs:        73.0000 ave         427 max           0 min
Histogram: 5 0 0 0 0 0 0 0 0 1

Total # of neighbors = 438
Ave neighs/atom = 4.5154639
Ave special neighs/atom = 1.9793814
Neighbor list builds = 5
Dangerous builds = 0

####Collapse the IDR

timestep 10
run 1000000
Per MPI rank memory allocation (min/avg/max) = 8.892 | 8.974 | 9.133 Mbytes
Step PotEng Temp Press KinEng Lx Ly Lz Pzz S/CPU Density 
    6000    11.244317    279.18468  -0.11201182    79.890863          300          300          300  0.043652983            0 0.00066940445 
 1000000    8.0875854    330.78403   -0.2295724     94.65642          300          300          300  -0.21274159    22272.795 0.00066940445 
 1006000    11.433057    393.85537   0.29312089    112.70477          300          300          300   0.28280793    18126.779 0.00066940445 
Loop time of 44.9595 on 6 procs for 1000000 steps with 97 atoms

Performance: 19217.277 ns/day, 0.001 hours/ns, 22242.219 timesteps/s
99.7% CPU use with 6 MPI tasks x no OpenMP threads

MPI task timing breakdown:
Section |  min time  |  avg time  |  max time  |%varavg| %total
---------------------------------------------------------------
Pair    | 1.39       | 5.3334     | 11.32      | 156.0 | 11.86
Bond    | 0.073989   | 0.21271    | 0.41824    |  27.2 |  0.47
Neigh   | 2.1649     | 2.1933     | 2.2225     |   1.4 |  4.88
Comm    | 27.875     | 34.903     | 39.473     |  71.2 | 77.63
Output  | 0.001205   | 0.0014982  | 0.0027511  |   1.4 |  0.00
Modify  | 0.31519    | 1.0122     | 2.0534     |  63.0 |  2.25
Other   |            | 1.304      |            |       |  2.90

Nlocal:        16.1667 ave          94 max           0 min
Histogram: 5 0 0 0 0 0 0 0 0 1
Nghost:        56.8333 ave         157 max           0 min
Histogram: 2 0 1 1 0 0 1 0 0 1
Neighs:        309.833 ave        1843 max           0 min
Histogram: 5 0 0 0 0 0 0 0 0 1

Total # of neighbors = 1859
Ave neighs/atom = 19.164948
Ave special neighs/atom = 1.9793814
Neighbor list builds = 27065
Dangerous builds = 0

####Replicate initial system

replicate 4 4 4
Replicating atoms ...
  orthogonal box = (0.0000000 0.0000000 0.0000000) to (1200.0000 1200.0000 1200.0000)
  1 by 2 by 3 MPI processor grid
  6208 atoms
  6144 bonds
Finding 1-2 1-3 1-4 neighbors ...
  special bond factors lj:    0        1        1       
  special bond factors coul:  0        1        1       
     2 = max # of 1-2 neighbors
     6 = max # of special neighbors
  special bonds CPU = 0.000 seconds
  replicate CPU = 0.001 seconds

run 1
Per MPI rank memory allocation (min/avg/max) = 11.63 | 11.65 | 11.67 Mbytes
Step PotEng Temp Press KinEng Lx Ly Lz Pzz S/CPU Density 
 1006000    731.71567     389.8578   0.29312089    7213.1054         1200         1200         1200   0.28280793            0 0.00066940445 
 1006001    754.49618    388.72614    0.2997761    7192.1675         1200         1200         1200   0.31814103    1165.7321 0.00066940445 
Loop time of 0.000936508 on 6 procs for 1 steps with 6208 atoms

Performance: 922.576 ns/day, 0.026 hours/ns, 1067.796 timesteps/s
99.8% CPU use with 6 MPI tasks x no OpenMP threads

MPI task timing breakdown:
Section |  min time  |  avg time  |  max time  |%varavg| %total
---------------------------------------------------------------
Pair    | 0.00035501 | 0.00047203 | 0.0007     |   0.0 | 50.40
Bond    | 1.3828e-05 | 1.8835e-05 | 2.8133e-05 |   0.0 |  2.01
Neigh   | 0          | 0          | 0          |   0.0 |  0.00
Comm    | 2.5034e-05 | 0.00026198 | 0.00038338 |   0.0 | 27.97
Output  | 2.8849e-05 | 6.6121e-05 | 9.9897e-05 |   0.0 |  7.06
Modify  | 4.077e-05  | 5.4598e-05 | 8.0824e-05 |   0.0 |  5.83
Other   |            | 6.294e-05  |            |       |  6.72

Nlocal:        1034.67 ave        1528 max         776 min
Histogram: 4 0 0 0 0 0 0 0 0 2
Nghost:        720.333 ave        1180 max         319 min
Histogram: 2 0 0 2 0 0 0 0 0 2
Neighs:        19829.3 ave       29616 max       14872 min
Histogram: 4 0 0 0 0 0 0 0 0 2

Total # of neighbors = 118976
Ave neighs/atom = 19.164948
Ave special neighs/atom = 1.9793814
Neighbor list builds = 0
Dangerous builds = 0

####Smaller box size

#change_box all x final 0 300 y final 0 300 z final 0 300 remap

####Loop to compress

variable myDensity equal density
label loop
variable a loop 1000
change_box all x scale 0.95 y scale 0.95 z scale 0.95 remap
Changing box ...
  orthogonal box = (30.000000 0.0000000 0.0000000) to (1170.0000 1200.0000 1200.0000)
  orthogonal box = (30.000000 30.000000 0.0000000) to (1170.0000 1170.0000 1200.0000)
  orthogonal box = (30.000000 30.000000 30.000000) to (1170.0000 1170.0000 1170.0000)
run 8000
Per MPI rank memory allocation (min/avg/max) = 11.64 | 11.65 | 11.67 Mbytes
Step PotEng Temp Press KinEng Lx Ly Lz Pzz S/CPU Density 
 1006001    3977.6846    388.72614    2.0640549    7192.1675         1140         1140         1140    2.0140132            0 0.0007807604 
 1014001    610.46206    345.42056 -0.016270086    6390.9325         1140         1140         1140 -0.014710364    1338.3434 0.0007807604 
Loop time of 5.97765 on 6 procs for 8000 steps with 6208 atoms

Performance: 1156.307 ns/day, 0.021 hours/ns, 1338.318 timesteps/s
99.7% CPU use with 6 MPI tasks x no OpenMP threads

MPI task timing breakdown:
Section |  min time  |  avg time  |  max time  |%varavg| %total
---------------------------------------------------------------
Pair    | 2.13       | 2.9352     | 4.4175     |  61.2 | 49.10
Bond    | 0.064695   | 0.086285   | 0.12941    |  10.3 |  1.44
Neigh   | 0.53829    | 0.53894    | 0.53936    |   0.0 |  9.02
Comm    | 0.22675    | 1.9225     | 2.8329     |  86.4 | 32.16
Output  | 4.2915e-05 | 8.6625e-05 | 0.00014591 |   0.0 |  0.00
Modify  | 0.32375    | 0.43292    | 0.64765    |  23.0 |  7.24
Other   |            | 0.06174    |            |       |  1.03

Nlocal:        1034.67 ave        1549 max         776 min
Histogram: 4 0 0 0 0 0 0 0 0 2
Nghost:        594.333 ave        1025 max         286 min
Histogram: 2 0 1 1 0 0 0 1 0 1
Neighs:        17915.8 ave       27175 max       12461 min
Histogram: 3 0 1 0 0 0 0 0 0 2

Total # of neighbors = 107495
Ave neighs/atom = 17.315561
Ave special neighs/atom = 1.9793814
Neighbor list builds = 340
Dangerous builds = 0

if "${myDensity} > 1.0" then "jump SELF break"

next a
jump SELF loop
variable a loop 1000
change_box all x scale 0.95 y scale 0.95 z scale 0.95 remap
Changing box ...
  orthogonal box = (58.500000 30.000000 30.000000) to (1141.5000 1170.0000 1170.0000)
  orthogonal box = (58.500000 58.500000 30.000000) to (1141.5000 1141.5000 1170.0000)
  orthogonal box = (58.500000 58.500000 58.500000) to (1141.5000 1141.5000 1141.5000)
run 8000
Per MPI rank memory allocation (min/avg/max) = 11.64 | 11.65 | 11.67 Mbytes
Step PotEng Temp Press KinEng Lx Ly Lz Pzz S/CPU Density 
 1014001    2700.5657    345.42056    1.9722264    6390.9325         1083         1083         1083     1.983344            0 0.0009106405 
 1022001    548.93845    349.53396  0.012934957    6467.0382         1083         1083         1083 0.0049646204    1403.7937 0.0009106405 
Loop time of 5.69898 on 6 procs for 8000 steps with 6208 atoms

Performance: 1212.849 ns/day, 0.020 hours/ns, 1403.761 timesteps/s
99.7% CPU use with 6 MPI tasks x no OpenMP threads

MPI task timing breakdown:
Section |  min time  |  avg time  |  max time  |%varavg| %total
---------------------------------------------------------------
Pair    | 1.9423     | 2.7281     | 4.1594     |  59.5 | 47.87
Bond    | 0.064393   | 0.086053   | 0.12859    |  10.1 |  1.51
Neigh   | 0.4645     | 0.46645    | 0.46846    |   0.2 |  8.18
Comm    | 0.28747    | 1.925      | 2.8178     |  81.5 | 33.78
Output  | 4.22e-05   | 9.0122e-05 | 0.00016499 |   0.0 |  0.00
Modify  | 0.32388    | 0.43295    | 0.64777    |  22.7 |  7.60
Other   |            | 0.06035    |            |       |  1.06

Nlocal:        1034.67 ave        1557 max         770 min
Histogram: 4 0 0 0 0 0 0 0 0 2
Nghost:        673.167 ave        1116 max         307 min
Histogram: 1 0 1 1 1 0 1 0 0 1
Neighs:        17463.2 ave       26954 max       12543 min
Histogram: 3 1 0 0 0 0 0 1 0 1

Total # of neighbors = 104779
Ave neighs/atom = 16.878061
Ave special neighs/atom = 1.9793814
Neighbor list builds = 322
Dangerous builds = 0

if "${myDensity} > 1.0" then "jump SELF break"

next a
jump SELF loop
variable a loop 1000
change_box all x scale 0.95 y scale 0.95 z scale 0.95 remap
Changing box ...
  orthogonal box = (85.575000 58.500000 58.500000) to (1114.4250 1141.5000 1141.5000)
  orthogonal box = (85.575000 85.575000 58.500000) to (1114.4250 1114.4250 1141.5000)
  orthogonal box = (85.575000 85.575000 85.575000) to (1114.4250 1114.4250 1114.4250)
run 8000
Per MPI rank memory allocation (min/avg/max) = 11.64 | 11.65 | 11.67 Mbytes
Step PotEng Temp Press KinEng Lx Ly Lz Pzz S/CPU Density 
 1022001    2720.8257    349.53396    2.3372709    6467.0382      1028.85      1028.85      1028.85    2.3655766            0 0.0010621263 
 1030001    612.00716    347.79341  0.015160705    6434.8347      1028.85      1028.85      1028.85 0.0087692457    1477.5529 0.0010621263 
Loop time of 5.41448 on 6 procs for 8000 steps with 6208 atoms

Performance: 1276.576 ns/day, 0.019 hours/ns, 1477.518 timesteps/s
99.7% CPU use with 6 MPI tasks x no OpenMP threads

MPI task timing breakdown:
Section |  min time  |  avg time  |  max time  |%varavg| %total
---------------------------------------------------------------
Pair    | 1.8895     | 2.6183     | 3.9059     |  54.7 | 48.36
Bond    | 0.064072   | 0.086218   | 0.13005    |   9.9 |  1.59
Neigh   | 0.42921    | 0.43201    | 0.43472    |   0.3 |  7.98
Comm    | 0.27609    | 1.7815     | 2.6221     |  77.1 | 32.90
Output  | 4.3869e-05 | 8.897e-05  | 0.00015807 |   0.0 |  0.00
Modify  | 0.3219     | 0.43411    | 0.65511    |  22.2 |  8.02
Other   |            | 0.06224    |            |       |  1.15

Nlocal:        1034.67 ave        1566 max         769 min
Histogram: 4 0 0 0 0 0 0 0 1 1
Nghost:        804.000 ave        1124 max         467 min
Histogram: 1 0 0 2 1 0 0 0 1 1
Neighs:        17156.0 ave       25035 max       12402 min
Histogram: 3 1 0 0 0 0 0 0 0 2

Total # of neighbors = 102936
Ave neighs/atom = 16.581186
Ave special neighs/atom = 1.9793814
Neighbor list builds = 312
Dangerous builds = 0

if "${myDensity} > 1.0" then "jump SELF break"

next a
jump SELF loop
variable a loop 1000
change_box all x scale 0.95 y scale 0.95 z scale 0.95 remap
Changing box ...
  orthogonal box = (111.29625 85.575000 85.575000) to (1088.7037 1114.4250 1114.4250)
  orthogonal box = (111.29625 111.29625 85.575000) to (1088.7037 1088.7037 1114.4250)
  orthogonal box = (111.29625 111.29625 111.29625) to (1088.7037 1088.7037 1088.7037)
run 8000
Per MPI rank memory allocation (min/avg/max) = 11.64 | 11.65 | 11.67 Mbytes
Step PotEng Temp Press KinEng Lx Ly Lz Pzz S/CPU Density 
 1030001    2787.0587    347.79341    2.7256225    6434.8347     977.4075     977.4075     977.4075    2.7260148            0 0.0012388118 
 1038001    618.96931      348.995 0.00035228546    6457.0664     977.4075     977.4075     977.4075 0.0012660224    1506.5048 0.0012388118 
Loop time of 5.31042 on 6 procs for 8000 steps with 6208 atoms

Performance: 1301.592 ns/day, 0.018 hours/ns, 1506.472 timesteps/s
99.7% CPU use with 6 MPI tasks x no OpenMP threads

MPI task timing breakdown:
Section |  min time  |  avg time  |  max time  |%varavg| %total
---------------------------------------------------------------
Pair    | 1.9541     | 2.6547     | 3.8261     |  44.6 | 49.99
Bond    | 0.065933   | 0.086239   | 0.12643    |   8.3 |  1.62
Neigh   | 0.42261    | 0.42538    | 0.42851    |   0.3 |  8.01
Comm    | 0.28351    | 1.6502     | 2.4382     |  65.8 | 31.08
Output  | 4.4823e-05 | 8.3089e-05 | 0.00014806 |   0.0 |  0.00
Modify  | 0.33056    | 0.43364    | 0.63343    |  18.5 |  8.17
Other   |            | 0.06014    |            |       |  1.13

Nlocal:        1034.67 ave        1445 max         787 min
Histogram: 2 1 1 0 0 0 0 0 1 1
Nghost:        891.333 ave        1248 max         566 min
Histogram: 1 0 0 3 0 0 0 0 1 1
Neighs:        16930.8 ave       23034 max       12121 min
Histogram: 1 1 1 1 0 0 0 0 1 1

Total # of neighbors = 101585
Ave neighs/atom = 16.363563
Ave special neighs/atom = 1.9793814
Neighbor list builds = 319
Dangerous builds = 0

if "${myDensity} > 1.0" then "jump SELF break"

next a
jump SELF loop
variable a loop 1000
change_box all x scale 0.95 y scale 0.95 z scale 0.95 remap
Changing box ...
  orthogonal box = (135.73144 111.29625 111.29625) to (1064.2686 1088.7037 1088.7037)
  orthogonal box = (135.73144 135.73144 111.29625) to (1064.2686 1064.2686 1088.7037)
  orthogonal box = (135.73144 135.73144 135.73144) to (1064.2686 1064.2686 1064.2686)
run 8000
Per MPI rank memory allocation (min/avg/max) = 11.64 | 11.65 | 11.67 Mbytes
Step PotEng Temp Press KinEng Lx Ly Lz Pzz S/CPU Density 
 1038001    2719.2839      348.995    3.1128199    6457.0664    928.53712    928.53712    928.53712    3.1302148            0 0.0014448891 
 1046001    698.18197    345.81182  0.027015589    6398.1716    928.53712    928.53712    928.53712   0.05062119    1563.8791 0.0014448891 
Loop time of 5.1156 on 6 procs for 8000 steps with 6208 atoms

Performance: 1351.160 ns/day, 0.018 hours/ns, 1563.843 timesteps/s
99.6% CPU use with 6 MPI tasks x no OpenMP threads

MPI task timing breakdown:
Section |  min time  |  avg time  |  max time  |%varavg| %total
---------------------------------------------------------------
Pair    | 2.0403     | 2.669      | 3.6943     |  39.8 | 52.17
Bond    | 0.066483   | 0.086287   | 0.12041    |   7.1 |  1.69
Neigh   | 0.39956    | 0.40241    | 0.40571    |   0.3 |  7.87
Comm    | 0.27641    | 1.4686     | 2.201      |  62.1 | 28.71
Output  | 5.1975e-05 | 8.901e-05  | 0.0001471  |   0.0 |  0.00
Modify  | 0.33455    | 0.4339     | 0.60414    |  15.7 |  8.48
Other   |            | 0.05532    |            |       |  1.08

Nlocal:        1034.67 ave        1466 max         815 min
Histogram: 2 2 0 0 0 0 1 0 0 1
Nghost:        916.833 ave        1306 max         565 min
Histogram: 1 0 0 1 2 0 1 0 0 1
Neighs:        16177.5 ave       23543 max       11024 min
Histogram: 1 2 1 0 0 0 0 0 1 1

Total # of neighbors = 97065
Ave neighs/atom = 15.635470
Ave special neighs/atom = 1.9793814
Neighbor list builds = 324
Dangerous builds = 0

if "${myDensity} > 1.0" then "jump SELF break"

next a
jump SELF loop
variable a loop 1000
change_box all x scale 0.95 y scale 0.95 z scale 0.95 remap
Changing box ...
  orthogonal box = (158.94487 135.73144 135.73144) to (1041.0551 1064.2686 1064.2686)
  orthogonal box = (158.94487 158.94487 135.73144) to (1041.0551 1041.0551 1064.2686)
  orthogonal box = (158.94487 158.94487 158.94487) to (1041.0551 1041.0551 1041.0551)
run 8000
Per MPI rank memory allocation (min/avg/max) = 11.64 | 11.65 | 11.68 Mbytes
Step PotEng Temp Press KinEng Lx Ly Lz Pzz S/CPU Density 
 1046001    2855.9048    345.81182    3.6671374    6398.1716    882.11027    882.11027    882.11027     3.787487            0 0.0016852475 
 1054001    638.26136    347.88642  -0.08097711    6436.5556    882.11027    882.11027    882.11027  -0.14046539    1597.4405 0.0016852475 
Loop time of 5.00809 on 6 procs for 8000 steps with 6208 atoms

Performance: 1380.167 ns/day, 0.017 hours/ns, 1597.416 timesteps/s
99.7% CPU use with 6 MPI tasks x no OpenMP threads

MPI task timing breakdown:
Section |  min time  |  avg time  |  max time  |%varavg| %total
---------------------------------------------------------------
Pair    | 1.8814     | 2.6248     | 3.6196     |  39.4 | 52.41
Bond    | 0.066046   | 0.086203   | 0.11805    |   6.7 |  1.72
Neigh   | 0.38121    | 0.38459    | 0.38789    |   0.4 |  7.68
Comm    | 0.28091    | 1.4292     | 2.2749     |  61.2 | 28.54
Output  | 4.1962e-05 | 7.1088e-05 | 0.0001061  |   0.0 |  0.00
Modify  | 0.33375    | 0.43325    | 0.59058    |  14.8 |  8.65
Other   |            | 0.05       |            |       |  1.00

Nlocal:        1034.67 ave        1379 max         769 min
Histogram: 2 0 0 2 0 0 0 0 0 2
Nghost:        950.000 ave        1198 max         589 min
Histogram: 1 0 0 0 1 1 1 0 0 2
Neighs:        16484.0 ave       21866 max       12930 min
Histogram: 2 1 1 0 0 0 0 0 0 2

Total # of neighbors = 98904
Ave neighs/atom = 15.931701
Ave special neighs/atom = 1.9793814
Neighbor list builds = 317
Dangerous builds = 0

if "${myDensity} > 1.0" then "jump SELF break"

next a
jump SELF loop
variable a loop 1000
change_box all x scale 0.95 y scale 0.95 z scale 0.95 remap
Changing box ...
  orthogonal box = (180.99762 158.94487 158.94487) to (1019.0024 1041.0551 1041.0551)
  orthogonal box = (180.99762 180.99762 158.94487) to (1019.0024 1019.0024 1041.0551)
  orthogonal box = (180.99762 180.99762 180.99762) to (1019.0024 1019.0024 1019.0024)
run 8000
Per MPI rank memory allocation (min/avg/max) = 11.64 | 11.65 | 11.68 Mbytes
Step PotEng Temp Press KinEng Lx Ly Lz Pzz S/CPU Density 
 1054001    2642.3565    347.88642    4.1832385    6436.5556    838.00476    838.00476    838.00476    4.1376443            0 0.0019655898 
 1062001    633.77741    345.13979  0.029264432    6385.7378    838.00476    838.00476    838.00476   0.03948843    1626.1158 0.0019655898 
Loop time of 4.91973 on 6 procs for 8000 steps with 6208 atoms

Performance: 1404.954 ns/day, 0.017 hours/ns, 1626.104 timesteps/s
99.7% CPU use with 6 MPI tasks x no OpenMP threads

MPI task timing breakdown:
Section |  min time  |  avg time  |  max time  |%varavg| %total
---------------------------------------------------------------
Pair    | 1.8821     | 2.6316     | 3.5127     |  39.0 | 53.49
Bond    | 0.059956   | 0.086398   | 0.11489    |   7.3 |  1.76
Neigh   | 0.36139    | 0.36511    | 0.36864    |   0.4 |  7.42
Comm    | 0.33402    | 1.3541     | 2.2298     |  63.2 | 27.52
Output  | 3.9101e-05 | 6.4095e-05 | 7.8201e-05 |   0.0 |  0.00
Modify  | 0.30199    | 0.4333     | 0.57518    |  16.0 |  8.81
Other   |            | 0.04913    |            |       |  1.00

Nlocal:        1034.67 ave        1393 max         707 min
Histogram: 1 1 1 0 0 1 0 0 0 2
Nghost:        991.167 ave        1174 max         574 min
Histogram: 1 0 0 0 0 1 0 0 2 2
Neighs:        16439.3 ave       22678 max       10682 min
Histogram: 1 1 1 0 0 0 1 0 1 1

Total # of neighbors = 98636
Ave neighs/atom = 15.888531
Ave special neighs/atom = 1.9793814
Neighbor list builds = 319
Dangerous builds = 0

if "${myDensity} > 1.0" then "jump SELF break"

next a
jump SELF loop
variable a loop 1000
change_box all x scale 0.95 y scale 0.95 z scale 0.95 remap
Changing box ...
  orthogonal box = (201.94774 180.99762 180.99762) to (998.05226 1019.0024 1019.0024)
  orthogonal box = (201.94774 201.94774 180.99762) to (998.05226 998.05226 1019.0024)
  orthogonal box = (201.94774 201.94774 201.94774) to (998.05226 998.05226 998.05226)
run 8000
Per MPI rank memory allocation (min/avg/max) = 11.64 | 11.65 | 11.68 Mbytes
Step PotEng Temp Press KinEng Lx Ly Lz Pzz S/CPU Density 
 1062001    2811.2238    345.13979    5.0358701    6385.7378    796.10452    796.10452    796.10452    5.0702135            0 0.0022925672 
 1070001    719.44492    346.69574  0.081605411    6414.5257    796.10452    796.10452    796.10452   0.12762632    1687.2593 0.0022925672 
Loop time of 4.74154 on 6 procs for 8000 steps with 6208 atoms

Performance: 1457.755 ns/day, 0.016 hours/ns, 1687.216 timesteps/s
99.7% CPU use with 6 MPI tasks x no OpenMP threads

MPI task timing breakdown:
Section |  min time  |  avg time  |  max time  |%varavg| %total
---------------------------------------------------------------
Pair    | 1.6136     | 2.515      | 3.4016     |  42.9 | 53.04
Bond    | 0.058465   | 0.086152   | 0.11379    |   7.3 |  1.82
Neigh   | 0.3464     | 0.34932    | 0.35218    |   0.3 |  7.37
Comm    | 0.29184    | 1.3112     | 2.3458     |  68.5 | 27.65
Output  | 4.0054e-05 | 7.4228e-05 | 0.00014997 |   0.0 |  0.00
Modify  | 0.2947     | 0.43302    | 0.56894    |  16.1 |  9.13
Other   |            | 0.04674    |            |       |  0.99

Nlocal:        1034.67 ave        1314 max         690 min
Histogram: 1 0 1 1 0 0 0 1 0 2
Nghost:        1002.50 ave        1320 max         499 min
Histogram: 1 0 0 0 1 0 2 0 0 2
Neighs:        16138.8 ave       21016 max        9355 min
Histogram: 1 0 1 0 1 0 0 0 1 2

Total # of neighbors = 96833
Ave neighs/atom = 15.598099
Ave special neighs/atom = 1.9793814
Neighbor list builds = 318
Dangerous builds = 0

if "${myDensity} > 1.0" then "jump SELF break"

next a
jump SELF loop
variable a loop 1000
change_box all x scale 0.95 y scale 0.95 z scale 0.95 remap
Changing box ...
  orthogonal box = (221.85035 201.94774 201.94774) to (978.14965 998.05226 998.05226)
  orthogonal box = (221.85035 221.85035 201.94774) to (978.14965 978.14965 998.05226)
  orthogonal box = (221.85035 221.85035 221.85035) to (978.14965 978.14965 978.14965)
run 8000
Per MPI rank memory allocation (min/avg/max) = 11.64 | 11.65 | 11.68 Mbytes
Step PotEng Temp Press KinEng Lx Ly Lz Pzz S/CPU Density 
 1070001    2967.9308    346.69574    6.0058618    6414.5257    756.29929    756.29929    756.29929    5.8895695            0 0.0026739375 
 1078001    691.98448    352.21899  -0.06146979    6516.7163    756.29929    756.29929    756.29929 -0.050721068    1665.5546 0.0026739375 
Loop time of 4.80333 on 6 procs for 8000 steps with 6208 atoms

Performance: 1439.001 ns/day, 0.017 hours/ns, 1665.511 timesteps/s
99.7% CPU use with 6 MPI tasks x no OpenMP threads

MPI task timing breakdown:
Section |  min time  |  avg time  |  max time  |%varavg| %total
---------------------------------------------------------------
Pair    | 1.7065     | 2.5663     | 3.4499     |  38.3 | 53.43
Bond    | 0.060684   | 0.086306   | 0.11273    |   6.3 |  1.80
Neigh   | 0.36018    | 0.36253    | 0.36493    |   0.3 |  7.55
Comm    | 0.299      | 1.3091     | 2.2917     |  61.5 | 27.25
Output  | 4.7207e-05 | 8.0228e-05 | 0.00015688 |   0.0 |  0.00
Modify  | 0.30544    | 0.4337     | 0.56362    |  14.0 |  9.03
Other   |            | 0.04525    |            |       |  0.94

Nlocal:        1034.67 ave        1359 max         708 min
Histogram: 1 0 1 1 0 1 0 0 1 1
Nghost:        1039.67 ave        1249 max         578 min
Histogram: 1 0 0 0 0 1 1 0 0 3
Neighs:        16028.2 ave       22168 max       10244 min
Histogram: 1 0 1 1 0 0 1 1 0 1

Total # of neighbors = 96169
Ave neighs/atom = 15.491140
Ave special neighs/atom = 1.9793814
Neighbor list builds = 331
Dangerous builds = 0

if "${myDensity} > 1.0" then "jump SELF break"

next a
jump SELF loop
variable a loop 1000
change_box all x scale 0.95 y scale 0.95 z scale 0.95 remap
Changing box ...
  orthogonal box = (240.75784 221.85035 221.85035) to (959.24216 978.14965 978.14965)
  orthogonal box = (240.75784 240.75784 221.85035) to (959.24216 959.24216 978.14965)
  orthogonal box = (240.75784 240.75784 240.75784) to (959.24216 959.24216 959.24216)
run 8000
Per MPI rank memory allocation (min/avg/max) = 11.64 | 11.65 | 11.68 Mbytes
Step PotEng Temp Press KinEng Lx Ly Lz Pzz S/CPU Density 
 1078001    2730.0883    352.21899    6.6545837    6516.7163    718.48433    718.48433    718.48433    6.5238181            0 0.0031187491 
 1086001    580.82516    346.77292  0.020025068    6415.9536    718.48433    718.48433    718.48433   0.03711246    1591.4082 0.0031187491 
Loop time of 5.02709 on 6 procs for 8000 steps with 6208 atoms

Performance: 1374.950 ns/day, 0.017 hours/ns, 1591.377 timesteps/s
99.7% CPU use with 6 MPI tasks x no OpenMP threads

MPI task timing breakdown:
Section |  min time  |  avg time  |  max time  |%varavg| %total
---------------------------------------------------------------
Pair    | 2.0023     | 2.6204     | 3.6824     |  35.0 | 52.13
Bond    | 0.067685   | 0.086194   | 0.11356    |   5.4 |  1.71
Neigh   | 0.35538    | 0.35824    | 0.36077    |   0.3 |  7.13
Comm    | 0.28816    | 1.4832     | 2.1885     |  52.8 | 29.50
Output  | 5.1975e-05 | 7.3353e-05 | 0.00012803 |   0.0 |  0.00
Modify  | 0.33992    | 0.43313    | 0.56975    |  12.1 |  8.62
Other   |            | 0.04585    |            |       |  0.91

Nlocal:        1034.67 ave        1363 max         834 min
Histogram: 2 0 1 0 1 1 0 0 0 1
Nghost:        1061.50 ave        1194 max         786 min
Histogram: 1 0 0 1 0 0 0 0 2 2
Neighs:        16652.3 ave       25081 max       12960 min
Histogram: 3 0 1 0 1 0 0 0 0 1

Total # of neighbors = 99914
Ave neighs/atom = 16.094394
Ave special neighs/atom = 1.9793814
Neighbor list builds = 318
Dangerous builds = 0

if "${myDensity} > 1.0" then "jump SELF break"

next a
jump SELF loop
variable a loop 1000
change_box all x scale 0.95 y scale 0.95 z scale 0.95 remap
Changing box ...
  orthogonal box = (258.71994 240.75784 240.75784) to (941.28006 959.24216 959.24216)
  orthogonal box = (258.71994 258.71994 240.75784) to (941.28006 941.28006 959.24216)
  orthogonal box = (258.71994 258.71994 258.71994) to (941.28006 941.28006 941.28006)
run 8000
Per MPI rank memory allocation (min/avg/max) = 11.64 | 11.65 | 11.68 Mbytes
Step PotEng Temp Press KinEng Lx Ly Lz Pzz S/CPU Density 
 1086001    2702.4075    346.77292    7.8632263    6415.9536    682.56011    682.56011    682.56011    7.6816379            0 0.0036375554 
 1094001    521.13775     348.3298   0.11306351    6444.7589    682.56011    682.56011    682.56011  0.085502341     1530.568 0.0036375554 
Loop time of 5.22693 on 6 procs for 8000 steps with 6208 atoms

Performance: 1322.382 ns/day, 0.018 hours/ns, 1530.535 timesteps/s
99.7% CPU use with 6 MPI tasks x no OpenMP threads

MPI task timing breakdown:
Section |  min time  |  avg time  |  max time  |%varavg| %total
---------------------------------------------------------------
Pair    | 2.1157     | 2.6768     | 3.8883     |  35.7 | 51.21
Bond    | 0.066808   | 0.086128   | 0.11251    |   5.2 |  1.65
Neigh   | 0.3537     | 0.35683    | 0.3597     |   0.4 |  6.83
Comm    | 0.29021    | 1.63       | 2.2886     |  51.3 | 31.19
Output  | 4.7922e-05 | 7.3671e-05 | 0.000144   |   0.0 |  0.00
Modify  | 0.33867    | 0.43256    | 0.56441    |  11.4 |  8.28
Other   |            | 0.04449    |            |       |  0.85

Nlocal:        1034.67 ave        1317 max         782 min
Histogram: 1 1 0 1 0 1 0 1 0 1
Nghost:        1113.67 ave        1233 max         825 min
Histogram: 1 0 0 0 1 0 0 0 0 4
Neighs:        17058.0 ave       24563 max       13218 min
Histogram: 2 1 0 2 0 0 0 0 0 1

Total # of neighbors = 102348
Ave neighs/atom = 16.486469
Ave special neighs/atom = 1.9793814
Neighbor list builds = 320
Dangerous builds = 0

if "${myDensity} > 1.0" then "jump SELF break"

next a
jump SELF loop
variable a loop 1000
change_box all x scale 0.95 y scale 0.95 z scale 0.95 remap
Changing box ...
  orthogonal box = (275.78395 258.71994 258.71994) to (924.21605 941.28006 941.28006)
  orthogonal box = (275.78395 275.78395 258.71994) to (924.21605 924.21605 941.28006)
  orthogonal box = (275.78395 275.78395 275.78395) to (924.21605 924.21605 924.21605)
run 8000
Per MPI rank memory allocation (min/avg/max) = 11.64 | 11.65 | 11.68 Mbytes
Step PotEng Temp Press KinEng Lx Ly Lz Pzz S/CPU Density 
 1094001    2718.4022     348.3298     9.332767    6444.7589    648.43211    648.43211    648.43211    9.2549125            0 0.0042426656 
 1102001    614.35211     342.4332   0.19911639    6335.6606    648.43211    648.43211    648.43211   0.17945422    1690.2821 0.0042426656 
Loop time of 4.73297 on 6 procs for 8000 steps with 6208 atoms

Performance: 1460.393 ns/day, 0.016 hours/ns, 1690.270 timesteps/s
99.7% CPU use with 6 MPI tasks x no OpenMP threads

MPI task timing breakdown:
Section |  min time  |  avg time  |  max time  |%varavg| %total
---------------------------------------------------------------
Pair    | 2.1513     | 2.6322     | 3.4479     |  27.7 | 55.61
Bond    | 0.065963   | 0.086369   | 0.10711    |   5.0 |  1.82
Neigh   | 0.32428    | 0.32629    | 0.32928    |   0.3 |  6.89
Comm    | 0.29231    | 1.2086     | 1.7917     |  47.1 | 25.54
Output  | 0.0057909  | 0.0059368  | 0.0060952  |   0.1 |  0.13
Modify  | 0.3345     | 0.43407    | 0.53818    |  11.0 |  9.17
Other   |            | 0.03947    |            |       |  0.83

Nlocal:        1034.67 ave        1265 max         810 min
Histogram: 2 0 0 1 0 0 0 1 1 1
Nghost:        1199.67 ave        1399 max         842 min
Histogram: 1 0 0 0 0 1 1 1 0 2
Neighs:        16587.3 ave       20423 max       13776 min
Histogram: 2 0 1 0 0 1 0 1 0 1

Total # of neighbors = 99524
Ave neighs/atom = 16.031572
Ave special neighs/atom = 1.9793814
Neighbor list builds = 319
Dangerous builds = 0

if "${myDensity} > 1.0" then "jump SELF break"

next a
jump SELF loop
variable a loop 1000
change_box all x scale 0.95 y scale 0.95 z scale 0.95 remap
Changing box ...
  orthogonal box = (291.99475 275.78395 275.78395) to (908.00525 924.21605 924.21605)
  orthogonal box = (291.99475 291.99475 275.78395) to (908.00525 908.00525 924.21605)
  orthogonal box = (291.99475 291.99475 291.99475) to (908.00525 908.00525 908.00525)
run 8000
Per MPI rank memory allocation (min/avg/max) = 11.79 | 11.81 | 11.86 Mbytes
Step PotEng Temp Press KinEng Lx Ly Lz Pzz S/CPU Density 
 1102001     2872.158     342.4332    10.999312    6335.6606     616.0105     616.0105     616.0105    10.903946            0 0.0049484363 
 1110001    581.31422    347.42744  -0.12243712    6428.0636     616.0105     616.0105     616.0105  -0.11040959    1736.0388 0.0049484363 
Loop time of 4.60831 on 6 procs for 8000 steps with 6208 atoms

Performance: 1499.899 ns/day, 0.016 hours/ns, 1735.994 timesteps/s
99.7% CPU use with 6 MPI tasks x no OpenMP threads

MPI task timing breakdown:
Section |  min time  |  avg time  |  max time  |%varavg| %total
---------------------------------------------------------------
Pair    | 2.0745     | 2.6246     | 3.33       |  30.5 | 56.95
Bond    | 0.067104   | 0.086356   | 0.10954    |   5.5 |  1.87
Neigh   | 0.3096     | 0.31224    | 0.31536    |   0.3 |  6.78
Comm    | 0.29124    | 1.109      | 1.7467     |  54.5 | 24.07
Output  | 4.6015e-05 | 7.3314e-05 | 0.000144   |   0.0 |  0.00
Modify  | 0.33648    | 0.43393    | 0.54965    |  12.2 |  9.42
Other   |            | 0.04207    |            |       |  0.91

Nlocal:        1034.67 ave        1344 max         825 min
Histogram: 2 1 0 0 0 0 2 0 0 1
Nghost:        1215.50 ave        1426 max         996 min
Histogram: 1 0 1 0 0 1 2 0 0 1
Neighs:        16364.3 ave       20987 max       12978 min
Histogram: 2 1 0 0 0 0 2 0 0 1

Total # of neighbors = 98186
Ave neighs/atom = 15.816044
Ave special neighs/atom = 1.9793814
Neighbor list builds = 316
Dangerous builds = 0

if "${myDensity} > 1.0" then "jump SELF break"

next a
jump SELF loop
variable a loop 1000
change_box all x scale 0.95 y scale 0.95 z scale 0.95 remap
Changing box ...
  orthogonal box = (307.39501 291.99475 291.99475) to (892.60499 908.00525 908.00525)
  orthogonal box = (307.39501 307.39501 291.99475) to (892.60499 892.60499 908.00525)
  orthogonal box = (307.39501 307.39501 307.39501) to (892.60499 892.60499 892.60499)
run 8000
Per MPI rank memory allocation (min/avg/max) = 11.79 | 11.81 | 11.86 Mbytes
Step PotEng Temp Press KinEng Lx Ly Lz Pzz S/CPU Density 
 1110001       2624.4    347.42744     12.31017    6428.0636    585.20997    585.20997    585.20997    12.256702            0 0.0057716126 
 1118001    702.87629    343.07718  -0.10866315    6347.5755    585.20997    585.20997    585.20997  0.085222449    1677.9382 0.0057716126 
Loop time of 4.76787 on 6 procs for 8000 steps with 6208 atoms

Performance: 1449.703 ns/day, 0.017 hours/ns, 1677.897 timesteps/s
99.7% CPU use with 6 MPI tasks x no OpenMP threads

MPI task timing breakdown:
Section |  min time  |  avg time  |  max time  |%varavg| %total
---------------------------------------------------------------
Pair    | 1.843      | 2.6241     | 3.4295     |  33.7 | 55.04
Bond    | 0.064603   | 0.086509   | 0.11411    |   5.9 |  1.81
Neigh   | 0.32563    | 0.32841    | 0.33163    |   0.4 |  6.89
Comm    | 0.30749    | 1.2466     | 2.1315     |  56.5 | 26.15
Output  | 4.6015e-05 | 7.3115e-05 | 0.0001452  |   0.0 |  0.00
Modify  | 0.32374    | 0.43464    | 0.57246    |  13.2 |  9.12
Other   |            | 0.04746    |            |       |  1.00

Nlocal:        1034.67 ave        1342 max         734 min
Histogram: 1 0 1 1 0 0 1 1 0 1
Nghost:        1266.83 ave        1503 max        1036 min
Histogram: 1 1 1 0 0 0 1 0 0 2
Neighs:        16561.2 ave       21383 max       10616 min
Histogram: 1 0 1 0 1 0 1 0 1 1

Total # of neighbors = 99367
Ave neighs/atom = 16.006282
Ave special neighs/atom = 1.9793814
Neighbor list builds = 319
Dangerous builds = 0

if "${myDensity} > 1.0" then "jump SELF break"

next a
jump SELF loop
variable a loop 1000
change_box all x scale 0.95 y scale 0.95 z scale 0.95 remap
Changing box ...
  orthogonal box = (322.02526 307.39501 307.39501) to (877.97474 892.60499 892.60499)
  orthogonal box = (322.02526 322.02526 307.39501) to (877.97474 877.97474 892.60499)
  orthogonal box = (322.02526 322.02526 322.02526) to (877.97474 877.97474 877.97474)
run 8000
Per MPI rank memory allocation (min/avg/max) = 11.79 | 11.81 | 11.86 Mbytes
Step PotEng Temp Press KinEng Lx Ly Lz Pzz S/CPU Density 
 1118001    2788.3985    343.07718    14.508035    6347.5755    555.94948    555.94948    555.94948    14.674835            0 0.0067317249 
 1126001    615.58005    345.34319  -0.22254316    6389.5011    555.94948    555.94948    555.94948 -0.052334162    1706.5178 0.0067317249 
Loop time of 4.68794 on 6 procs for 8000 steps with 6208 atoms

Performance: 1474.420 ns/day, 0.016 hours/ns, 1706.505 timesteps/s
99.7% CPU use with 6 MPI tasks x no OpenMP threads

MPI task timing breakdown:
Section |  min time  |  avg time  |  max time  |%varavg| %total
---------------------------------------------------------------
Pair    | 1.7963     | 2.6784     | 3.422      |  34.0 | 57.13
Bond    | 0.064027   | 0.086554   | 0.10692    |   5.1 |  1.85
Neigh   | 0.31495    | 0.31725    | 0.32012    |   0.3 |  6.77
Comm    | 0.32068    | 1.1343     | 2.1289     |  59.1 | 24.20
Output  | 3.7909e-05 | 5.1657e-05 | 6.5088e-05 |   0.0 |  0.00
Modify  | 0.32039    | 0.43469    | 0.53708    |  11.3 |  9.27
Other   |            | 0.03668    |            |       |  0.78

Nlocal:        1034.67 ave        1243 max         730 min
Histogram: 1 0 1 0 0 0 0 2 0 2
Nghost:        1250.83 ave        1594 max        1030 min
Histogram: 2 0 1 0 0 2 0 0 0 1
Neighs:        17628.7 ave       24024 max       11787 min
Histogram: 1 0 1 0 2 0 1 0 0 1

Total # of neighbors = 105772
Ave neighs/atom = 17.038015
Ave special neighs/atom = 1.9793814
Neighbor list builds = 322
Dangerous builds = 0

if "${myDensity} > 1.0" then "jump SELF break"

next a
jump SELF loop
variable a loop 1000
change_box all x scale 0.95 y scale 0.95 z scale 0.95 remap
Changing box ...
  orthogonal box = (335.92400 322.02526 322.02526) to (864.07600 877.97474 877.97474)
  orthogonal box = (335.92400 335.92400 322.02526) to (864.07600 864.07600 877.97474)
  orthogonal box = (335.92400 335.92400 335.92400) to (864.07600 864.07600 864.07600)
run 8000
Per MPI rank memory allocation (min/avg/max) = 11.79 | 11.81 | 11.86 Mbytes
Step PotEng Temp Press KinEng Lx Ly Lz Pzz S/CPU Density 
 1126001    2671.8462    345.34319    16.893038    6389.5011      528.152      528.152      528.152    16.800761            0 0.0078515525 
 1134001    572.87454    347.16322  -0.32477571    6423.1749      528.152      528.152      528.152  -0.62631507    1789.2957 0.0078515525 
Loop time of 4.47116 on 6 procs for 8000 steps with 6208 atoms

Performance: 1545.908 ns/day, 0.016 hours/ns, 1789.245 timesteps/s
99.7% CPU use with 6 MPI tasks x no OpenMP threads

MPI task timing breakdown:
Section |  min time  |  avg time  |  max time  |%varavg| %total
---------------------------------------------------------------
Pair    | 2.1028     | 2.716      | 3.2585     |  23.4 | 60.74
Bond    | 0.068524   | 0.086367   | 0.10184    |   3.9 |  1.93
Neigh   | 0.29805    | 0.30012    | 0.3025     |   0.3 |  6.71
Comm    | 0.32286    | 0.90425    | 1.608      |  46.0 | 20.22
Output  | 4.0054e-05 | 6.3499e-05 | 0.00015402 |   0.0 |  0.00
Modify  | 0.34364    | 0.43408    | 0.51375    |   8.7 |  9.71
Other   |            | 0.03031    |            |       |  0.68

Nlocal:        1034.67 ave        1231 max         910 min
Histogram: 2 0 1 0 0 2 0 0 0 1
Nghost:        1269.50 ave        1527 max         987 min
Histogram: 2 0 0 0 1 0 0 1 1 1
Neighs:        17254.8 ave       19936 max       14102 min
Histogram: 1 0 1 0 1 0 1 0 1 1

Total # of neighbors = 103529
Ave neighs/atom = 16.676707
Ave special neighs/atom = 1.9793814
Neighbor list builds = 321
Dangerous builds = 0

if "${myDensity} > 1.0" then "jump SELF break"

next a
jump SELF loop
variable a loop 1000
change_box all x scale 0.95 y scale 0.95 z scale 0.95 remap
Changing box ...
  orthogonal box = (349.12780 335.92400 335.92400) to (850.87220 864.07600 864.07600)
  orthogonal box = (349.12780 349.12780 335.92400) to (850.87220 850.87220 864.07600)
  orthogonal box = (349.12780 349.12780 349.12780) to (850.87220 850.87220 850.87220)
run 8000
Per MPI rank memory allocation (min/avg/max) = 11.79 | 11.81 | 11.86 Mbytes
Step PotEng Temp Press KinEng Lx Ly Lz Pzz S/CPU Density 
 1134001     2587.041    347.16322    19.488246    6423.1749     501.7444     501.7444     501.7444    19.357643            0 0.0091576644 
 1142001    542.68438    346.70309 -0.057869683    6414.6617     501.7444     501.7444     501.7444  0.044093467    1722.1597 0.0091576644 
Loop time of 4.64545 on 6 procs for 8000 steps with 6208 atoms

Performance: 1487.908 ns/day, 0.016 hours/ns, 1722.116 timesteps/s
99.7% CPU use with 6 MPI tasks x no OpenMP threads

MPI task timing breakdown:
Section |  min time  |  avg time  |  max time  |%varavg| %total
---------------------------------------------------------------
Pair    | 2.2798     | 2.8244     | 3.3989     |  21.4 | 60.80
Bond    | 0.072369   | 0.086818   | 0.1042     |   3.3 |  1.87
Neigh   | 0.31698    | 0.3181     | 0.31931    |   0.2 |  6.85
Comm    | 0.28616    | 0.94742    | 1.5625     |  42.0 | 20.39
Output  | 4.8876e-05 | 6.8744e-05 | 0.00014496 |   0.0 |  0.00
Modify  | 0.3664     | 0.43525    | 0.52246    |   7.3 |  9.37
Other   |            | 0.0334     |            |       |  0.72

Nlocal:        1034.67 ave        1296 max         809 min
Histogram: 1 0 1 0 1 2 0 0 0 1
Nghost:        1372.33 ave        1624 max         972 min
Histogram: 1 0 0 1 0 1 0 0 2 1
Neighs:        17563.7 ave       23343 max       13537 min
Histogram: 1 1 0 0 3 0 0 0 0 1

Total # of neighbors = 105382
Ave neighs/atom = 16.975193
Ave special neighs/atom = 1.9793814
Neighbor list builds = 319
Dangerous builds = 0

if "${myDensity} > 1.0" then "jump SELF break"

next a
jump SELF loop
variable a loop 1000
change_box all x scale 0.95 y scale 0.95 z scale 0.95 remap
Changing box ...
  orthogonal box = (361.67141 349.12780 349.12780) to (838.32859 850.87220 850.87220)
  orthogonal box = (361.67141 361.67141 349.12780) to (838.32859 838.32859 850.87220)
  orthogonal box = (361.67141 361.67141 361.67141) to (838.32859 838.32859 838.32859)
run 8000
Per MPI rank memory allocation (min/avg/max) = 11.79 | 11.82 | 11.86 Mbytes
Step PotEng Temp Press KinEng Lx Ly Lz Pzz S/CPU Density 
 1142001    2641.6904    346.70309    23.048255    6414.6617    476.65718    476.65718    476.65718     23.17672            0  0.010681049 
 1150001    666.40828    352.54434  0.016589925    6522.7359    476.65718    476.65718    476.65718  -0.20089426    1781.5872  0.010681049 
Loop time of 4.49041 on 6 procs for 8000 steps with 6208 atoms

Performance: 1539.279 ns/day, 0.016 hours/ns, 1781.573 timesteps/s
99.7% CPU use with 6 MPI tasks x no OpenMP threads

MPI task timing breakdown:
Section |  min time  |  avg time  |  max time  |%varavg| %total
---------------------------------------------------------------
Pair    | 2.238      | 2.7053     | 3.2577     |  21.1 | 60.25
Bond    | 0.069489   | 0.087052   | 0.099432   |   3.3 |  1.94
Neigh   | 0.30199    | 0.30407    | 0.30578    |   0.3 |  6.77
Comm    | 0.31487    | 0.92883    | 1.482      |  40.5 | 20.68
Output  | 4.1962e-05 | 5.3088e-05 | 7.2002e-05 |   0.0 |  0.00
Modify  | 0.3514     | 0.43567    | 0.49725    |   7.1 |  9.70
Other   |            | 0.02945    |            |       |  0.66

Nlocal:        1034.67 ave        1136 max         790 min
Histogram: 1 0 0 0 0 0 1 1 1 2
Nghost:        1480.83 ave        1739 max        1222 min
Histogram: 2 0 0 0 1 0 0 1 1 1
Neighs:        16927.7 ave       19861 max       12874 min
Histogram: 1 0 0 0 1 1 0 2 0 1

Total # of neighbors = 101566
Ave neighs/atom = 16.360503
Ave special neighs/atom = 1.9793814
Neighbor list builds = 325
Dangerous builds = 0

if "${myDensity} > 1.0" then "jump SELF break"

next a
jump SELF loop
variable a loop 1000
change_box all x scale 0.95 y scale 0.95 z scale 0.95 remap
Changing box ...
  orthogonal box = (373.58784 361.67141 361.67141) to (826.41216 838.32859 838.32859)
  orthogonal box = (373.58784 373.58784 361.67141) to (826.41216 826.41216 838.32859)
  orthogonal box = (373.58784 373.58784 373.58784) to (826.41216 826.41216 826.41216)
run 8000
Per MPI rank memory allocation (min/avg/max) = 11.79 | 11.82 | 11.86 Mbytes
Step PotEng Temp Press KinEng Lx Ly Lz Pzz S/CPU Density 
 1150001    2786.0335    352.54434    27.119866    6522.7359    452.82432    452.82432    452.82432    26.885979            0   0.01245785 
 1158001    575.68083    343.98286   0.19524918    6364.3324    452.82432    452.82432    452.82432   0.66527948     1748.123   0.01245785 
Loop time of 4.57646 on 6 procs for 8000 steps with 6208 atoms

Performance: 1510.336 ns/day, 0.016 hours/ns, 1748.074 timesteps/s
99.7% CPU use with 6 MPI tasks x no OpenMP threads

MPI task timing breakdown:
Section |  min time  |  avg time  |  max time  |%varavg| %total
---------------------------------------------------------------
Pair    | 2.2428     | 2.695      | 3.2156     |  23.5 | 58.89
Bond    | 0.071894   | 0.087095   | 0.099266   |   3.3 |  1.90
Neigh   | 0.2989     | 0.30122    | 0.30377    |   0.3 |  6.58
Comm    | 0.44868    | 1.0242     | 1.547      |  42.7 | 22.38
Output  | 3.9816e-05 | 7.0771e-05 | 0.00016212 |   0.0 |  0.00
Modify  | 0.36207    | 0.43518    | 0.49339    |   7.3 |  9.51
Other   |            | 0.03367    |            |       |  0.74

Nlocal:        1034.67 ave        1216 max         888 min
Histogram: 3 0 0 0 0 0 0 1 1 1
Nghost:        1602.33 ave        1945 max        1081 min
Histogram: 1 0 0 1 0 1 0 0 1 2
Neighs:        17625.5 ave       21826 max       14356 min
Histogram: 3 0 0 0 0 0 1 0 1 1

Total # of neighbors = 105753
Ave neighs/atom = 17.034955
Ave special neighs/atom = 1.9793814
Neighbor list builds = 319
Dangerous builds = 0

if "${myDensity} > 1.0" then "jump SELF break"

next a
jump SELF loop
variable a loop 1000
change_box all x scale 0.95 y scale 0.95 z scale 0.95 remap
Changing box ...
  orthogonal box = (384.90845 373.58784 373.58784) to (815.09155 826.41216 826.41216)
  orthogonal box = (384.90845 384.90845 373.58784) to (815.09155 815.09155 826.41216)
  orthogonal box = (384.90845 384.90845 384.90845) to (815.09155 815.09155 815.09155)
run 8000
Per MPI rank memory allocation (min/avg/max) = 11.80 | 11.82 | 11.87 Mbytes
Step PotEng Temp Press KinEng Lx Ly Lz Pzz S/CPU Density 
 1158001    2742.7755    343.98286    31.758995    6364.3324    430.18311    430.18311    430.18311    31.877594            0  0.014530223 
 1166001    556.97137     339.5029   0.58961188    6281.4445    430.18311    430.18311    430.18311 -0.025396496    1709.7057  0.014530223 
Loop time of 4.67928 on 6 procs for 8000 steps with 6208 atoms

Performance: 1477.149 ns/day, 0.016 hours/ns, 1709.664 timesteps/s
99.5% CPU use with 6 MPI tasks x no OpenMP threads

MPI task timing breakdown:
Section |  min time  |  avg time  |  max time  |%varavg| %total
---------------------------------------------------------------
Pair    | 2.215      | 2.7391     | 3.3549     |  23.9 | 58.54
Bond    | 0.069909   | 0.087181   | 0.096845   |   3.3 |  1.86
Neigh   | 0.31417    | 0.31626    | 0.3194     |   0.3 |  6.76
Comm    | 0.37697    | 1.0442     | 1.6528     |  43.3 | 22.31
Output  | 3.8862e-05 | 6.7472e-05 | 0.00015211 |   0.0 |  0.00
Modify  | 0.35303    | 0.43623    | 0.48432    |   7.3 |  9.32
Other   |            | 0.0563     |            |       |  1.20

Nlocal:        1034.67 ave        1192 max         792 min
Histogram: 1 0 0 0 1 1 0 1 0 2
Nghost:        1662.33 ave        1975 max        1160 min
Histogram: 1 0 1 0 0 0 0 1 1 2
Neighs:        17204.0 ave       21673 max       12979 min
Histogram: 1 0 0 3 0 0 0 0 1 1

Total # of neighbors = 103224
Ave neighs/atom = 16.627577
Ave special neighs/atom = 1.9793814
Neighbor list builds = 318
Dangerous builds = 0

if "${myDensity} > 1.0" then "jump SELF break"

next a
jump SELF loop
variable a loop 1000
change_box all x scale 0.95 y scale 0.95 z scale 0.95 remap
Changing box ...
  orthogonal box = (395.66302 384.90845 384.90845) to (804.33698 815.09155 815.09155)
  orthogonal box = (395.66302 395.66302 384.90845) to (804.33698 804.33698 815.09155)
  orthogonal box = (395.66302 395.66302 395.66302) to (804.33698 804.33698 804.33698)
run 8000
Per MPI rank memory allocation (min/avg/max) = 11.80 | 11.82 | 11.87 Mbytes
Step PotEng Temp Press KinEng Lx Ly Lz Pzz S/CPU Density 
 1166001    2821.9837     339.5029    37.831904    6281.4445    408.67395    408.67395    408.67395    37.311542            0  0.016947337 
 1174001    579.75176    343.66332 -0.043402696    6358.4203    408.67395    408.67395    408.67395  0.090736481    1673.6986  0.016947337 
Loop time of 4.77988 on 6 procs for 8000 steps with 6208 atoms

Performance: 1446.063 ns/day, 0.017 hours/ns, 1673.684 timesteps/s
99.4% CPU use with 6 MPI tasks x no OpenMP threads

MPI task timing breakdown:
Section |  min time  |  avg time  |  max time  |%varavg| %total
---------------------------------------------------------------
Pair    | 2.2766     | 2.764      | 3.2734     |  20.3 | 57.83
Bond    | 0.072068   | 0.087217   | 0.10347    |   3.4 |  1.82
Neigh   | 0.32144    | 0.33349    | 0.3464     |   1.9 |  6.98
Comm    | 0.5235     | 1.1155     | 1.6873     |  36.6 | 23.34
Output  | 5.2929e-05 | 6.9737e-05 | 0.00010014 |   0.0 |  0.00
Modify  | 0.36344    | 0.4369     | 0.51373    |   7.3 |  9.14
Other   |            | 0.04271    |            |       |  0.89

Nlocal:        1034.67 ave        1194 max         891 min
Histogram: 1 1 0 0 0 2 1 0 0 1
Nghost:        1847.83 ave        2201 max        1315 min
Histogram: 2 0 0 0 0 0 0 0 3 1
Neighs:        18073.2 ave       20283 max       15570 min
Histogram: 1 0 1 1 0 0 1 0 1 1

Total # of neighbors = 108439
Ave neighs/atom = 17.467622
Ave special neighs/atom = 1.9793814
Neighbor list builds = 316
Dangerous builds = 0

if "${myDensity} > 1.0" then "jump SELF break"

next a
jump SELF loop
variable a loop 1000
change_box all x scale 0.95 y scale 0.95 z scale 0.95 remap
Changing box ...
  orthogonal box = (405.87987 395.66302 395.66302) to (794.12013 804.33698 804.33698)
  orthogonal box = (405.87987 405.87987 395.66302) to (794.12013 794.12013 804.33698)
  orthogonal box = (405.87987 405.87987 405.87987) to (794.12013 794.12013 794.12013)
run 8000
Per MPI rank memory allocation (min/avg/max) = 11.80 | 11.82 | 11.87 Mbytes
Step PotEng Temp Press KinEng Lx Ly Lz Pzz S/CPU Density 
 1174001     2710.003    343.66332    42.999607    6358.4203    388.24025    388.24025    388.24025    43.383545            0   0.01976654 
 1182001    634.64749    343.39337  -0.78368853    6353.4257    388.24025    388.24025    388.24025  -0.26624442    1752.3907   0.01976654 
Loop time of 4.56531 on 6 procs for 8000 steps with 6208 atoms

Performance: 1514.027 ns/day, 0.016 hours/ns, 1752.346 timesteps/s
99.7% CPU use with 6 MPI tasks x no OpenMP threads

MPI task timing breakdown:
Section |  min time  |  avg time  |  max time  |%varavg| %total
---------------------------------------------------------------
Pair    | 2.569      | 2.8221     | 3.1547     |  10.7 | 61.82
Bond    | 0.075589   | 0.087251   | 0.097572   |   2.4 |  1.91
Neigh   | 0.30485    | 0.30678    | 0.30961    |   0.4 |  6.72
Comm    | 0.5039     | 0.8787     | 1.1892     |  22.6 | 19.25
Output  | 5.6982e-05 | 7.8837e-05 | 0.00016403 |   0.0 |  0.00
Modify  | 0.38166    | 0.43668    | 0.48485    |   5.2 |  9.57
Other   |            | 0.03369    |            |       |  0.74

Nlocal:        1034.67 ave        1104 max         832 min
Histogram: 1 0 0 0 0 0 0 1 1 3
Nghost:        1894.17 ave        2226 max        1417 min
Histogram: 1 0 1 0 0 0 1 1 0 2
Neighs:        18021.0 ave       19906 max       15266 min
Histogram: 1 0 0 0 1 0 2 0 1 1

Total # of neighbors = 108126
Ave neighs/atom = 17.417204
Ave special neighs/atom = 1.9793814
Neighbor list builds = 322
Dangerous builds = 0

if "${myDensity} > 1.0" then "jump SELF break"

next a
jump SELF loop
variable a loop 1000
change_box all x scale 0.95 y scale 0.95 z scale 0.95 remap
Changing box ...
  orthogonal box = (415.58588 405.87987 405.87987) to (784.41412 794.12013 794.12013)
  orthogonal box = (415.58588 415.58588 405.87987) to (784.41412 784.41412 794.12013)
  orthogonal box = (415.58588 415.58588 415.58588) to (784.41412 784.41412 784.41412)
run 8000
Per MPI rank memory allocation (min/avg/max) = 11.80 | 11.82 | 11.87 Mbytes
Step PotEng Temp Press KinEng Lx Ly Lz Pzz S/CPU Density 
 1182001    2678.0405    343.39337    49.590252    6353.4257    368.82824    368.82824    368.82824    49.651597            0  0.023054719 
 1190001    651.57955    342.68821  0.011261337    6340.3788    368.82824    368.82824    368.82824    0.1493567    1745.9811  0.023054719 
Loop time of 4.58199 on 6 procs for 8000 steps with 6208 atoms

Performance: 1508.516 ns/day, 0.016 hours/ns, 1745.968 timesteps/s
99.8% CPU use with 6 MPI tasks x no OpenMP threads

MPI task timing breakdown:
Section |  min time  |  avg time  |  max time  |%varavg| %total
---------------------------------------------------------------
Pair    | 2.4583     | 2.8643     | 3.1441     |  12.8 | 62.51
Bond    | 0.073915   | 0.087387   | 0.097877   |   2.4 |  1.91
Neigh   | 0.32365    | 0.32596    | 0.32889    |   0.3 |  7.11
Comm    | 0.55788    | 0.83338    | 1.3077     |  26.2 | 18.19
Output  | 3.9101e-05 | 5.2055e-05 | 7.7963e-05 |   0.0 |  0.00
Modify  | 0.37084    | 0.43624    | 0.48536    |   5.2 |  9.52
Other   |            | 0.03463    |            |       |  0.76

Nlocal:        1034.67 ave        1141 max         843 min
Histogram: 1 0 0 0 0 0 3 0 1 1
Nghost:        2048.00 ave        2328 max        1675 min
Histogram: 2 0 0 0 0 0 2 0 0 2
Neighs:        18516.5 ave       20417 max       15756 min
Histogram: 1 0 0 1 0 0 1 2 0 1

Total # of neighbors = 111099
Ave neighs/atom = 17.896102
Ave special neighs/atom = 1.9793814
Neighbor list builds = 328
Dangerous builds = 0

if "${myDensity} > 1.0" then "jump SELF break"

next a
jump SELF loop
variable a loop 1000
change_box all x scale 0.95 y scale 0.95 z scale 0.95 remap
Changing box ...
  orthogonal box = (424.80659 415.58588 415.58588) to (775.19341 784.41412 784.41412)
  orthogonal box = (424.80659 424.80659 415.58588) to (775.19341 775.19341 784.41412)
  orthogonal box = (424.80659 424.80659 424.80659) to (775.19341 775.19341 775.19341)
run 8000
Per MPI rank memory allocation (min/avg/max) = 11.80 | 11.82 | 11.87 Mbytes
Step PotEng Temp Press KinEng Lx Ly Lz Pzz S/CPU Density 
 1190001    2763.4789    342.68821    57.929253    6340.3788    350.38683    350.38683    350.38683    57.733201            0  0.026889889 
 1198001    601.21862    348.18633   -1.2202478    6442.1044    350.38683    350.38683    350.38683  -0.96479379    1618.2827  0.026889889 
Loop time of 4.94364 on 6 procs for 8000 steps with 6208 atoms

Performance: 1398.161 ns/day, 0.017 hours/ns, 1618.242 timesteps/s
99.7% CPU use with 6 MPI tasks x no OpenMP threads

MPI task timing breakdown:
Section |  min time  |  avg time  |  max time  |%varavg| %total
---------------------------------------------------------------
Pair    | 2.1183     | 2.9993     | 3.4867     |  27.1 | 60.67
Bond    | 0.069726   | 0.087308   | 0.093172   |   2.7 |  1.77
Neigh   | 0.34593    | 0.34735    | 0.35005    |   0.3 |  7.03
Comm    | 0.53632    | 1.0398     | 2.0087     |  49.4 | 21.03
Output  | 4.1008e-05 | 7.0175e-05 | 0.00016689 |   0.0 |  0.00
Modify  | 0.34958    | 0.43582    | 0.46228    |   6.0 |  8.82
Other   |            | 0.03398    |            |       |  0.69

Nlocal:        1034.67 ave        1116 max         841 min
Histogram: 1 0 0 0 0 1 0 0 2 2
Nghost:        2120.50 ave        2357 max        1651 min
Histogram: 1 0 1 0 0 0 0 1 0 3
Neighs:        19619.0 ave       23021 max       13619 min
Histogram: 1 0 1 0 0 0 0 1 0 3

Total # of neighbors = 117714
Ave neighs/atom = 18.961662
Ave special neighs/atom = 1.9793814
Neighbor list builds = 323
Dangerous builds = 0

if "${myDensity} > 1.0" then "jump SELF break"

next a
jump SELF loop
variable a loop 1000
change_box all x scale 0.95 y scale 0.95 z scale 0.95 remap
Changing box ...
  orthogonal box = (433.56626 424.80659 424.80659) to (766.43374 775.19341 775.19341)
  orthogonal box = (433.56626 433.56626 424.80659) to (766.43374 766.43374 775.19341)
  orthogonal box = (433.56626 433.56626 433.56626) to (766.43374 766.43374 766.43374)
run 8000
Per MPI rank memory allocation (min/avg/max) = 11.80 | 11.82 | 11.87 Mbytes
Step PotEng Temp Press KinEng Lx Ly Lz Pzz S/CPU Density 
 1198001    2613.5062    348.18633    66.957542    6442.1044    332.86749    332.86749    332.86749    67.355975            0  0.031363043 
 1206001    495.01925    347.06353   0.53952133    6421.3305    332.86749    332.86749    332.86749     0.914415    1418.1679  0.031363043 
Loop time of 5.6412 on 6 procs for 8000 steps with 6208 atoms

Performance: 1225.271 ns/day, 0.020 hours/ns, 1418.138 timesteps/s
99.7% CPU use with 6 MPI tasks x no OpenMP threads

MPI task timing breakdown:
Section |  min time  |  avg time  |  max time  |%varavg| %total
---------------------------------------------------------------
Pair    | 2.4527     | 3.0785     | 4.0848     |  29.5 | 54.57
Bond    | 0.074143   | 0.087181   | 0.10134    |   2.7 |  1.55
Neigh   | 0.38896    | 0.39116    | 0.3947     |   0.3 |  6.93
Comm    | 0.53621    | 1.6023     | 2.2891     |  43.5 | 28.40
Output  | 0.0041151  | 0.004273   | 0.0045309  |   0.2 |  0.08
Modify  | 0.37325    | 0.43546    | 0.50247    |   5.8 |  7.72
Other   |            | 0.04224    |            |       |  0.75

Nlocal:        1034.67 ave        1241 max         844 min
Histogram: 1 0 0 1 1 2 0 0 0 1
Nghost:        2155.83 ave        2566 max        1616 min
Histogram: 1 1 0 0 0 1 0 0 1 2
Neighs:        19927.3 ave       27331 max       16529 min
Histogram: 1 2 2 0 0 0 0 0 0 1

Total # of neighbors = 119564
Ave neighs/atom = 19.259665
Ave special neighs/atom = 1.9793814
Neighbor list builds = 325
Dangerous builds = 0

if "${myDensity} > 1.0" then "jump SELF break"

next a
jump SELF loop
variable a loop 1000
change_box all x scale 0.95 y scale 0.95 z scale 0.95 remap
Changing box ...
  orthogonal box = (441.88794 433.56626 433.56626) to (758.11206 766.43374 766.43374)
  orthogonal box = (441.88794 441.88794 433.56626) to (758.11206 758.11206 766.43374)
  orthogonal box = (441.88794 441.88794 441.88794) to (758.11206 758.11206 758.11206)
run 8000
Per MPI rank memory allocation (min/avg/max) = 11.80 | 11.83 | 11.87 Mbytes
Step PotEng Temp Press KinEng Lx Ly Lz Pzz S/CPU Density 
 1206001    2664.3851    347.06353    80.146497    6421.3305    316.22411    316.22411    316.22411    81.544168            0   0.03658031 
 1214001    561.70677    346.79387    1.1132786    6416.3414    316.22411    316.22411    316.22411    0.9531779     1422.557   0.03658031 
Loop time of 5.62379 on 6 procs for 8000 steps with 6208 atoms

Performance: 1229.064 ns/day, 0.020 hours/ns, 1422.528 timesteps/s
99.7% CPU use with 6 MPI tasks x no OpenMP threads

MPI task timing breakdown:
Section |  min time  |  avg time  |  max time  |%varavg| %total
---------------------------------------------------------------
Pair    | 2.7449     | 3.1673     | 3.987      |  22.4 | 56.32
Bond    | 0.07583    | 0.087275   | 0.10144    |   2.7 |  1.55
Neigh   | 0.42142    | 0.42305    | 0.42555    |   0.2 |  7.52
Comm    | 0.58849    | 1.4675     | 1.9175     |  35.1 | 26.09
Output  | 3.7909e-05 | 6.7155e-05 | 0.00016117 |   0.0 |  0.00
Modify  | 0.38067    | 0.43532    | 0.50334    |   5.8 |  7.74
Other   |            | 0.04331    |            |       |  0.77

Nlocal:        1034.67 ave        1144 max         906 min
Histogram: 1 0 1 0 1 1 0 0 0 2
Nghost:        2361.33 ave        2701 max        1654 min
Histogram: 1 0 0 1 0 0 0 0 1 3
Neighs:        20457.8 ave       25242 max       18359 min
Histogram: 2 2 0 0 1 0 0 0 0 1

Total # of neighbors = 122747
Ave neighs/atom = 19.772390
Ave special neighs/atom = 1.9793814
Neighbor list builds = 326
Dangerous builds = 0

if "${myDensity} > 1.0" then "jump SELF break"

next a
jump SELF loop
variable a loop 1000
change_box all x scale 0.95 y scale 0.95 z scale 0.95 remap
Changing box ...
  orthogonal box = (449.79355 441.88794 441.88794) to (750.20645 758.11206 758.11206)
  orthogonal box = (449.79355 449.79355 441.88794) to (750.20645 750.20645 758.11206)
  orthogonal box = (449.79355 449.79355 449.79355) to (750.20645 750.20645 750.20645)
run 8000
Per MPI rank memory allocation (min/avg/max) = 11.80 | 11.83 | 11.88 Mbytes
Step PotEng Temp Press KinEng Lx Ly Lz Pzz S/CPU Density 
 1214001    2770.1715    346.79387    94.204807    6416.3414    300.41291    300.41291    300.41291    95.204179            0  0.042665473 
 1222001    544.82766    348.38016   0.42357147    6445.6908    300.41291    300.41291    300.41291   0.96904841    1358.8074  0.042665473 
Loop time of 5.88764 on 6 procs for 8000 steps with 6208 atoms

Performance: 1173.985 ns/day, 0.020 hours/ns, 1358.779 timesteps/s
99.7% CPU use with 6 MPI tasks x no OpenMP threads

MPI task timing breakdown:
Section |  min time  |  avg time  |  max time  |%varavg| %total
---------------------------------------------------------------
Pair    | 2.7889     | 3.2886     | 4.1128     |  24.0 | 55.86
Bond    | 0.077513   | 0.08722    | 0.10375    |   2.9 |  1.48
Neigh   | 0.44603    | 0.44925    | 0.45277    |   0.3 |  7.63
Comm    | 0.6875     | 1.5775     | 2.0629     |  36.3 | 26.79
Output  | 3.8147e-05 | 7.1764e-05 | 0.00018001 |   0.0 |  0.00
Modify  | 0.38703    | 0.43507    | 0.51521    |   6.2 |  7.39
Other   |            | 0.04989    |            |       |  0.85

Nlocal:        1034.67 ave        1176 max         882 min
Histogram: 1 0 0 0 2 2 0 0 0 1
Nghost:        2679.17 ave        3164 max        2055 min
Histogram: 1 1 0 0 0 0 1 1 1 1
Neighs:        21457.0 ave       26250 max       16649 min
Histogram: 1 0 1 1 1 0 0 0 0 2

Total # of neighbors = 128742
Ave neighs/atom = 20.738080
Ave special neighs/atom = 1.9793814
Neighbor list builds = 322
Dangerous builds = 0

if "${myDensity} > 1.0" then "jump SELF break"

next a
jump SELF loop
variable a loop 1000
change_box all x scale 0.95 y scale 0.95 z scale 0.95 remap
Changing box ...
  orthogonal box = (457.30387 449.79355 449.79355) to (742.69613 750.20645 750.20645)
  orthogonal box = (457.30387 457.30387 449.79355) to (742.69613 742.69613 750.20645)
  orthogonal box = (457.30387 457.30387 457.30387) to (742.69613 742.69613 742.69613)
run 8000
Per MPI rank memory allocation (min/avg/max) = 11.80 | 11.83 | 11.88 Mbytes
Step PotEng Temp Press KinEng Lx Ly Lz Pzz S/CPU Density 
 1222001    2718.6377    348.38016    109.77718    6445.6908    285.39226    285.39226    285.39226    113.22999            0  0.049762908 
 1230001    398.90478    348.83433    1.8995641    6454.0936    285.39226    285.39226    285.39226    1.1444002    1332.5516  0.049762908 
Loop time of 6.00363 on 6 procs for 8000 steps with 6208 atoms

Performance: 1151.303 ns/day, 0.021 hours/ns, 1332.526 timesteps/s
99.7% CPU use with 6 MPI tasks x no OpenMP threads

MPI task timing breakdown:
Section |  min time  |  avg time  |  max time  |%varavg| %total
---------------------------------------------------------------
Pair    | 2.6824     | 3.5228     | 4.2111     |  29.8 | 58.68
Bond    | 0.075719   | 0.087621   | 0.098995   |   2.4 |  1.46
Neigh   | 0.45169    | 0.45519    | 0.45811    |   0.4 |  7.58
Comm    | 0.76012    | 1.4567     | 2.3417     |  47.9 | 24.26
Output  | 3.9101e-05 | 7.7208e-05 | 0.00018406 |   0.0 |  0.00
Modify  | 0.37741    | 0.43662    | 0.49244    |   5.3 |  7.27
Other   |            | 0.0447     |            |       |  0.74

Nlocal:        1034.67 ave        1259 max         839 min
Histogram: 1 0 1 0 2 0 1 0 0 1
Nghost:        2733.17 ave        3239 max        2118 min
Histogram: 1 0 1 1 0 0 1 0 0 2
Neighs:        23399.0 ave       29722 max       16327 min
Histogram: 1 0 0 1 1 0 1 1 0 1

Total # of neighbors = 140394
Ave neighs/atom = 22.615013
Ave special neighs/atom = 1.9793814
Neighbor list builds = 316
Dangerous builds = 0

if "${myDensity} > 1.0" then "jump SELF break"

next a
jump SELF loop
variable a loop 1000
change_box all x scale 0.95 y scale 0.95 z scale 0.95 remap
Changing box ...
  orthogonal box = (464.43868 457.30387 457.30387) to (735.56132 742.69613 742.69613)
  orthogonal box = (464.43868 464.43868 457.30387) to (735.56132 735.56132 742.69613)
  orthogonal box = (464.43868 464.43868 464.43868) to (735.56132 735.56132 735.56132)
run 8000
Per MPI rank memory allocation (min/avg/max) = 11.80 | 11.83 | 11.88 Mbytes
Step PotEng Temp Press KinEng Lx Ly Lz Pzz S/CPU Density 
 1230001     2645.453    348.83433    129.77343    6454.0936    271.12265    271.12265    271.12265    129.47351            0  0.058041006 
 1238001    392.47947    345.84134  -0.60286803    6398.7178    271.12265    271.12265    271.12265   -2.0219709    1114.9641  0.058041006 
Loop time of 7.17525 on 6 procs for 8000 steps with 6208 atoms

Performance: 963.311 ns/day, 0.025 hours/ns, 1114.943 timesteps/s
99.6% CPU use with 6 MPI tasks x no OpenMP threads

MPI task timing breakdown:
Section |  min time  |  avg time  |  max time  |%varavg| %total
---------------------------------------------------------------
Pair    | 2.6131     | 3.6503     | 5.1712     |  42.0 | 50.87
Bond    | 0.069386   | 0.087602   | 0.11103    |   4.3 |  1.22
Neigh   | 0.56894    | 0.57347    | 0.57653    |   0.4 |  7.99
Comm    | 0.74817    | 2.3665     | 3.4784     |  55.2 | 32.98
Output  | 3.8147e-05 | 8.0784e-05 | 0.00021195 |   0.0 |  0.00
Modify  | 0.34447    | 0.43501    | 0.54814    |   9.4 |  6.06
Other   |            | 0.06224    |            |       |  0.87

Nlocal:        1034.67 ave        1320 max         837 min
Histogram: 1 0 2 0 1 0 1 0 0 1
Nghost:        2944.17 ave        3410 max        2200 min
Histogram: 1 0 1 0 0 0 0 2 0 2
Neighs:        23652.2 ave       36201 max       17514 min
Histogram: 2 0 1 2 0 0 0 0 0 1

Total # of neighbors = 141913
Ave neighs/atom = 22.859697
Ave special neighs/atom = 1.9793814
Neighbor list builds = 321
Dangerous builds = 0

if "${myDensity} > 1.0" then "jump SELF break"

next a
jump SELF loop
variable a loop 1000
change_box all x scale 0.95 y scale 0.95 z scale 0.95 remap
Changing box ...
  orthogonal box = (471.21674 464.43868 464.43868) to (728.78326 735.56132 735.56132)
  orthogonal box = (471.21674 471.21674 464.43868) to (728.78326 728.78326 735.56132)
  orthogonal box = (471.21674 471.21674 471.21674) to (728.78326 728.78326 728.78326)
run 8000
Per MPI rank memory allocation (min/avg/max) = 11.80 | 11.83 | 11.88 Mbytes
Step PotEng Temp Press KinEng Lx Ly Lz Pzz S/CPU Density 
 1238001    2523.7467    345.84134    148.32052    6398.7178    257.56652    257.56652    257.56652    147.29344            0  0.067696173 
 1246001    170.82756    344.68645  0.059892328      6377.35    257.56652    257.56652    257.56652   0.87833724    1075.2337  0.067696173 
Loop time of 7.44036 on 6 procs for 8000 steps with 6208 atoms

Performance: 928.987 ns/day, 0.026 hours/ns, 1075.217 timesteps/s
99.7% CPU use with 6 MPI tasks x no OpenMP threads

MPI task timing breakdown:
Section |  min time  |  avg time  |  max time  |%varavg| %total
---------------------------------------------------------------
Pair    | 2.6832     | 3.8424     | 5.4385     |  42.6 | 51.64
Bond    | 0.066329   | 0.087863   | 0.10504    |   4.1 |  1.18
Neigh   | 0.57775    | 0.58057    | 0.58493    |   0.4 |  7.80
Comm    | 0.77656    | 2.4368     | 3.6844     |  56.1 | 32.75
Output  | 4.1008e-05 | 8.0148e-05 | 0.00019503 |   0.0 |  0.00
Modify  | 0.32945    | 0.43599    | 0.51833    |   8.9 |  5.86
Other   |            | 0.05662    |            |       |  0.76

Nlocal:        1034.67 ave        1237 max         744 min
Histogram: 1 0 0 1 1 0 0 0 1 2
Nghost:        3151.67 ave        3505 max        2453 min
Histogram: 1 0 1 0 0 0 0 0 1 3
Neighs:        26071.0 ave       37281 max       17077 min
Histogram: 1 0 1 0 2 1 0 0 0 1

Total # of neighbors = 156426
Ave neighs/atom = 25.197487
Ave special neighs/atom = 1.9793814
Neighbor list builds = 322
Dangerous builds = 0

if "${myDensity} > 1.0" then "jump SELF break"

next a
jump SELF loop
variable a loop 1000
change_box all x scale 0.95 y scale 0.95 z scale 0.95 remap
Changing box ...
  orthogonal box = (477.65590 471.21674 471.21674) to (722.34410 728.78326 728.78326)
  orthogonal box = (477.65590 477.65590 471.21674) to (722.34410 722.34410 728.78326)
  orthogonal box = (477.65590 477.65590 477.65590) to (722.34410 722.34410 722.34410)
run 8000
Per MPI rank memory allocation (min/avg/max) = 11.80 | 11.84 | 11.88 Mbytes
Step PotEng Temp Press KinEng Lx Ly Lz Pzz S/CPU Density 
 1246001    2319.9695    344.68645    173.04359      6377.35    244.68819    244.68819    244.68819    175.94209            0  0.078957484 
 1254001    290.76018    343.56828   0.53913228    6356.6618    244.68819    244.68819    244.68819     2.131301    1114.2879  0.078957484 
Loop time of 7.17959 on 6 procs for 8000 steps with 6208 atoms

Performance: 962.729 ns/day, 0.025 hours/ns, 1114.270 timesteps/s
99.6% CPU use with 6 MPI tasks x no OpenMP threads

MPI task timing breakdown:
Section |  min time  |  avg time  |  max time  |%varavg| %total
---------------------------------------------------------------
Pair    | 2.0895     | 4.0929     | 5.1133     |  48.0 | 57.01
Bond    | 0.055002   | 0.088293   | 0.10237    |   5.6 |  1.23
Neigh   | 0.5782     | 0.5823     | 0.5883     |   0.5 |  8.11
Comm    | 0.86341    | 1.9293     | 4.0809     |  74.9 | 26.87
Output  | 3.9101e-05 | 7.3632e-05 | 0.00019097 |   0.0 |  0.00
Modify  | 0.27375    | 0.43635    | 0.50631    |  12.2 |  6.08
Other   |            | 0.05031    |            |       |  0.70

Nlocal:        1034.67 ave        1285 max         613 min
Histogram: 1 0 0 0 0 1 1 2 0 1
Nghost:        3322.00 ave        3756 max        2617 min
Histogram: 1 1 0 0 0 0 0 1 1 2
Neighs:        26745.8 ave       34234 max       12734 min
Histogram: 1 0 0 0 0 1 1 1 0 2

Total # of neighbors = 160475
Ave neighs/atom = 25.849710
Ave special neighs/atom = 1.9793814
Neighbor list builds = 318
Dangerous builds = 0

if "${myDensity} > 1.0" then "jump SELF break"

next a
jump SELF loop
variable a loop 1000
change_box all x scale 0.95 y scale 0.95 z scale 0.95 remap
Changing box ...
  orthogonal box = (483.77311 477.65590 477.65590) to (716.22689 722.34410 722.34410)
  orthogonal box = (483.77311 483.77311 477.65590) to (716.22689 716.22689 722.34410)
  orthogonal box = (483.77311 483.77311 483.77311) to (716.22689 716.22689 716.22689)
run 8000
Per MPI rank memory allocation (min/avg/max) = 11.81 | 11.84 | 11.89 Mbytes
Step PotEng Temp Press KinEng Lx Ly Lz Pzz S/CPU Density 
 1254001    2485.2114    343.56828    204.58783    6356.6618    232.45378    232.45378    232.45378    202.16258            0  0.092092123 
 1262001     217.0608    345.55008    4.4034958    6393.3289    232.45378    232.45378    232.45378    4.3740213     1105.948  0.092092123 
Loop time of 7.23373 on 6 procs for 8000 steps with 6208 atoms

Performance: 955.523 ns/day, 0.025 hours/ns, 1105.930 timesteps/s
99.6% CPU use with 6 MPI tasks x no OpenMP threads

MPI task timing breakdown:
Section |  min time  |  avg time  |  max time  |%varavg| %total
---------------------------------------------------------------
Pair    | 2.1617     | 4.1832     | 5.1464     |  47.0 | 57.83
Bond    | 0.050964   | 0.088471   | 0.10598    |   6.0 |  1.22
Neigh   | 0.62546    | 0.62851    | 0.63487    |   0.5 |  8.69
Comm    | 0.80559    | 1.8501     | 4.0414     |  76.4 | 25.58
Output  | 4.6015e-05 | 7.5658e-05 | 0.00019503 |   0.0 |  0.00
Modify  | 0.25437    | 0.43687    | 0.52324    |  13.1 |  6.04
Other   |            | 0.04645    |            |       |  0.64

Nlocal:        1034.67 ave        1238 max         545 min
Histogram: 1 0 0 0 0 0 1 0 3 1
Nghost:        3511.33 ave        4063 max        2939 min
Histogram: 2 0 0 0 0 1 1 0 1 1
Neighs:        27793.2 ave       35967 max       11607 min
Histogram: 1 0 0 0 0 0 0 4 0 1

Total # of neighbors = 166759
Ave neighs/atom = 26.861952
Ave special neighs/atom = 1.9793814
Neighbor list builds = 318
Dangerous builds = 0

if "${myDensity} > 1.0" then "jump SELF break"

next a
jump SELF loop
variable a loop 1000
change_box all x scale 0.95 y scale 0.95 z scale 0.95 remap
Changing box ...
  orthogonal box = (489.58445 483.77311 483.77311) to (710.41555 716.22689 716.22689)
  orthogonal box = (489.58445 489.58445 483.77311) to (710.41555 710.41555 716.22689)
  orthogonal box = (489.58445 489.58445 489.58445) to (710.41555 710.41555 710.41555)
run 8000
Per MPI rank memory allocation (min/avg/max) = 11.81 | 11.84 | 11.89 Mbytes
Step PotEng Temp Press KinEng Lx Ly Lz Pzz S/CPU Density 
 1262001    2502.1459    345.55008    242.10622    6393.3289    220.83109    220.83109    220.83109    237.19992            0   0.10741172 
 1270001    306.50726    341.13438   -5.3460429    6311.6301    220.83109    220.83109    220.83109   -6.6697028    1004.0671   0.10741172 
Loop time of 7.96772 on 6 procs for 8000 steps with 6208 atoms

Performance: 867.500 ns/day, 0.028 hours/ns, 1004.051 timesteps/s
99.6% CPU use with 6 MPI tasks x no OpenMP threads

MPI task timing breakdown:
Section |  min time  |  avg time  |  max time  |%varavg| %total
---------------------------------------------------------------
Pair    | 1.8102     | 4.4024     | 5.7999     |  59.5 | 55.25
Bond    | 0.043298   | 0.088485   | 0.1071     |   7.2 |  1.11
Neigh   | 0.714      | 0.71659    | 0.72246    |   0.4 |  8.99
Comm    | 0.79038    | 2.2754     | 5.08       |  89.4 | 28.56
Output  | 3.9101e-05 | 7.391e-05  | 0.00020385 |   0.0 |  0.00
Modify  | 0.21538    | 0.43708    | 0.52842    |  16.0 |  5.49
Other   |            | 0.04769    |            |       |  0.60

Nlocal:        1034.67 ave        1329 max         507 min
Histogram: 1 0 0 0 1 0 0 2 1 1
Nghost:        3806.67 ave        4270 max        3091 min
Histogram: 1 1 0 0 0 0 0 2 0 2
Neighs:        28605.8 ave       40613 max       10945 min
Histogram: 1 0 0 0 0 1 2 1 0 1

Total # of neighbors = 171635
Ave neighs/atom = 27.647390
Ave special neighs/atom = 1.9793814
Neighbor list builds = 322
Dangerous builds = 0

if "${myDensity} > 1.0" then "jump SELF break"

next a
jump SELF loop
variable a loop 1000
change_box all x scale 0.95 y scale 0.95 z scale 0.95 remap
Changing box ...
  orthogonal box = (495.10523 489.58445 489.58445) to (704.89477 710.41555 710.41555)
  orthogonal box = (495.10523 495.10523 489.58445) to (704.89477 704.89477 710.41555)
  orthogonal box = (495.10523 495.10523 495.10523) to (704.89477 704.89477 704.89477)
run 8000
Per MPI rank memory allocation (min/avg/max) = 11.81 | 11.85 | 11.90 Mbytes
Step PotEng Temp Press KinEng Lx Ly Lz Pzz S/CPU Density 
 1270001    2346.2335    341.13438     269.7731    6311.6301    209.78954    209.78954    209.78954     271.7989            0   0.12527974 
 1278001    368.69992    349.90062  -0.58187804     6473.822    209.78954    209.78954    209.78954  -0.68796598    886.33899   0.12527974 
Loop time of 9.02601 on 6 procs for 8000 steps with 6208 atoms

Performance: 765.787 ns/day, 0.031 hours/ns, 886.328 timesteps/s
99.6% CPU use with 6 MPI tasks x no OpenMP threads

MPI task timing breakdown:
Section |  min time  |  avg time  |  max time  |%varavg| %total
---------------------------------------------------------------
Pair    | 1.7799     | 4.5845     | 6.6322     |  68.5 | 50.79
Bond    | 0.044177   | 0.088377   | 0.11472    |   7.6 |  0.98
Neigh   | 0.84423    | 0.84739    | 0.85176    |   0.3 |  9.39
Comm    | 0.84039    | 3.0148     | 6.0289     |  90.6 | 33.40
Output  | 4.3869e-05 | 7.8559e-05 | 0.00019908 |   0.0 |  0.00
Modify  | 0.21928    | 0.43571    | 0.56464    |  16.7 |  4.83
Other   |            | 0.05515    |            |       |  0.61

Nlocal:        1034.67 ave        1390 max         465 min
Histogram: 1 0 0 0 1 1 0 1 1 1
Nghost:        4176.00 ave        4681 max        3455 min
Histogram: 1 0 0 1 0 0 1 1 1 1
Neighs:        30294.7 ave       47187 max       10374 min
Histogram: 1 0 0 1 0 1 1 1 0 1

Total # of neighbors = 181768
Ave neighs/atom = 29.279639
Ave special neighs/atom = 1.9793814
Neighbor list builds = 321
Dangerous builds = 0

if "${myDensity} > 1.0" then "jump SELF break"

next a
jump SELF loop
variable a loop 1000
change_box all x scale 0.95 y scale 0.95 z scale 0.95 remap
Changing box ...
  orthogonal box = (500.34997 495.10523 495.10523) to (699.65003 704.89477 704.89477)
  orthogonal box = (500.34997 500.34997 495.10523) to (699.65003 699.65003 704.89477)
  orthogonal box = (500.34997 500.34997 500.34997) to (699.65003 699.65003 699.65003)
run 8000
Per MPI rank memory allocation (min/avg/max) = 11.82 | 11.85 | 11.90 Mbytes
Step PotEng Temp Press KinEng Lx Ly Lz Pzz S/CPU Density 
 1278001    2504.3839    349.90062    321.15583     6473.822    199.30006    199.30006    199.30006    322.49568            0   0.14612013 
 1286001    112.85476    349.40583    -2.084158    6464.6675    199.30006    199.30006    199.30006   -2.2065117    847.32182   0.14612013 
Loop time of 9.44163 on 6 procs for 8000 steps with 6208 atoms

Performance: 732.077 ns/day, 0.033 hours/ns, 847.311 timesteps/s
99.6% CPU use with 6 MPI tasks x no OpenMP threads

MPI task timing breakdown:
Section |  min time  |  avg time  |  max time  |%varavg| %total
---------------------------------------------------------------
Pair    | 1.6306     | 4.8366     | 6.9161     |  77.6 | 51.23
Bond    | 0.036815   | 0.088939   | 0.11429    |   8.8 |  0.94
Neigh   | 0.86513    | 0.86841    | 0.87174    |   0.3 |  9.20
Comm    | 0.95181    | 3.1501     | 6.6065     | 103.1 | 33.36
Output  | 4.0054e-05 | 7.6572e-05 | 0.00019622 |   0.0 |  0.00
Modify  | 0.18298    | 0.43755    | 0.55967    |  19.3 |  4.63
Other   |            | 0.06003    |            |       |  0.64

Nlocal:        1034.67 ave        1340 max         430 min
Histogram: 1 0 0 0 0 1 1 0 1 2
Nghost:        4454.67 ave        5040 max        3953 min
Histogram: 1 0 1 1 0 1 1 0 0 1
Neighs:        32381.5 ave       44198 max       10282 min
Histogram: 1 0 0 0 1 1 0 0 0 3

Total # of neighbors = 194289
Ave neighs/atom = 31.296553
Ave special neighs/atom = 1.9793814
Neighbor list builds = 327
Dangerous builds = 0

if "${myDensity} > 1.0" then "jump SELF break"

next a
jump SELF loop
variable a loop 1000
change_box all x scale 0.95 y scale 0.95 z scale 0.95 remap
Changing box ...
  orthogonal box = (505.33247 500.34997 500.34997) to (694.66753 699.65003 699.65003)
  orthogonal box = (505.33247 505.33247 500.34997) to (694.66753 694.66753 699.65003)
  orthogonal box = (505.33247 505.33247 505.33247) to (694.66753 694.66753 694.66753)
run 8000
Per MPI rank memory allocation (min/avg/max) = 11.82 | 11.85 | 11.90 Mbytes
Step PotEng Temp Press KinEng Lx Ly Lz Pzz S/CPU Density 
 1286001    2264.3345    349.40583    379.56566    6464.6675    189.33506    189.33506    189.33506    379.64403            0   0.17042732 
 1294001     133.0074    343.17366  -0.19526977    6349.3607    189.33506    189.33506    189.33506   -3.8708432    873.75306   0.17042732 
Loop time of 9.15602 on 6 procs for 8000 steps with 6208 atoms

Performance: 754.913 ns/day, 0.032 hours/ns, 873.742 timesteps/s
99.4% CPU use with 6 MPI tasks x no OpenMP threads

MPI task timing breakdown:
Section |  min time  |  avg time  |  max time  |%varavg| %total
---------------------------------------------------------------
Pair    | 2.1565     | 5.1191     | 6.5853     |  69.2 | 55.91
Bond    | 0.044266   | 0.089571   | 0.10802    |   7.3 |  0.98
Neigh   | 0.80018    | 0.80267    | 0.80652    |   0.2 |  8.77
Comm    | 1.125      | 2.6515     | 5.8236     | 102.4 | 28.96
Output  | 3.9816e-05 | 7.0651e-05 | 0.00018597 |   0.0 |  0.00
Modify  | 0.21902    | 0.43877    | 0.52873    |  16.0 |  4.79
Other   |            | 0.05436    |            |       |  0.59

Nlocal:        1034.67 ave        1275 max         572 min
Histogram: 1 0 0 0 0 1 1 0 1 2
Nghost:        4819.00 ave        5270 max        4550 min
Histogram: 1 1 2 0 0 0 1 0 0 1
Neighs:        33637.8 ave       43551 max       15679 min
Histogram: 1 0 0 0 2 0 0 0 0 3

Total # of neighbors = 201827
Ave neighs/atom = 32.510793
Ave special neighs/atom = 1.9793814
Neighbor list builds = 309
Dangerous builds = 0

if "${myDensity} > 1.0" then "jump SELF break"

next a
jump SELF loop
variable a loop 1000
change_box all x scale 0.95 y scale 0.95 z scale 0.95 remap
Changing box ...
  orthogonal box = (510.06585 505.33247 505.33247) to (689.93415 694.66753 694.66753)
  orthogonal box = (510.06585 510.06585 505.33247) to (689.93415 689.93415 694.66753)
  orthogonal box = (510.06585 510.06585 510.06585) to (689.93415 689.93415 689.93415)
run 8000
Per MPI rank memory allocation (min/avg/max) = 11.83 | 11.86 | 11.90 Mbytes
Step PotEng Temp Press KinEng Lx Ly Lz Pzz S/CPU Density 
 1294001    2331.9896    343.17366    444.42592    6349.3607     179.8683     179.8683     179.8683    441.76989            0   0.19877804 
 1302001    41.761271    347.30231   -4.1763095    6425.7484     179.8683     179.8683     179.8683   -11.219114    794.76693   0.19877804 
Loop time of 10.066 on 6 procs for 8000 steps with 6208 atoms

Performance: 686.671 ns/day, 0.035 hours/ns, 794.758 timesteps/s
99.6% CPU use with 6 MPI tasks x no OpenMP threads

MPI task timing breakdown:
Section |  min time  |  avg time  |  max time  |%varavg| %total
---------------------------------------------------------------
Pair    | 3.4652     | 5.4708     | 7.4064     |  54.5 | 54.35
Bond    | 0.060216   | 0.089503   | 0.11126    |   5.3 |  0.89
Neigh   | 0.92197    | 0.92426    | 0.92735    |   0.2 |  9.18
Comm    | 1.0463     | 3.08       | 5.2212     |  76.6 | 30.60
Output  | 0.005826   | 0.0060192  | 0.0063081  |   0.2 |  0.06
Modify  | 0.29526    | 0.43829    | 0.53977    |  11.5 |  4.35
Other   |            | 0.05709    |            |       |  0.57

Nlocal:        1034.67 ave        1289 max         770 min
Histogram: 1 0 0 1 0 2 1 0 0 1
Nghost:        5453.50 ave        5710 max        5217 min
Histogram: 1 1 0 0 1 0 2 0 0 1
Neighs:        36538.7 ave       48262 max       26363 min
Histogram: 1 1 0 0 1 1 1 0 0 1

Total # of neighbors = 219232
Ave neighs/atom = 35.314433
Ave special neighs/atom = 1.9793814
Neighbor list builds = 319
Dangerous builds = 0

if "${myDensity} > 1.0" then "jump SELF break"

next a
jump SELF loop
variable a loop 1000
change_box all x scale 0.95 y scale 0.95 z scale 0.95 remap
Changing box ...
  orthogonal box = (514.56256 510.06585 510.06585) to (685.43744 689.93415 689.93415)
  orthogonal box = (514.56256 514.56256 510.06585) to (685.43744 685.43744 689.93415)
  orthogonal box = (514.56256 514.56256 514.56256) to (685.43744 685.43744 685.43744)
run 8000
Per MPI rank memory allocation (min/avg/max) = 11.84 | 11.87 | 11.92 Mbytes
Step PotEng Temp Press KinEng Lx Ly Lz Pzz S/CPU Density 
 1302001    2190.6017    347.30231    515.75279    6425.7484    170.87489    170.87489    170.87489    516.24798            0   0.23184492 
 1310001   -62.247659     349.4264   -11.741253    6465.0481    170.87489    170.87489    170.87489   -16.461583    726.58597   0.23184492 
Loop time of 11.0105 on 6 procs for 8000 steps with 6208 atoms

Performance: 627.764 ns/day, 0.038 hours/ns, 726.578 timesteps/s
99.6% CPU use with 6 MPI tasks x no OpenMP threads

MPI task timing breakdown:
Section |  min time  |  avg time  |  max time  |%varavg| %total
---------------------------------------------------------------
Pair    | 4.9906     | 5.8976     | 8.1274     |  42.7 | 53.56
Bond    | 0.077092   | 0.08961    | 0.11093    |   3.5 |  0.81
Neigh   | 1.0149     | 1.0157     | 1.0172     |   0.1 |  9.22
Comm    | 1.1826     | 3.5081     | 4.4491     |  57.8 | 31.86
Output  | 3.9101e-05 | 6.8386e-05 | 0.00016689 |   0.0 |  0.00
Modify  | 0.37574    | 0.43815    | 0.5397     |   7.7 |  3.98
Other   |            | 0.06124    |            |       |  0.56

Nlocal:        1034.67 ave        1237 max         904 min
Histogram: 1 0 1 2 1 0 0 0 0 1
Nghost:        5809.17 ave        6368 max        5459 min
Histogram: 2 1 1 0 0 0 0 0 1 1
Neighs:        39535.7 ave       53407 max       35182 min
Histogram: 3 2 0 0 0 0 0 0 0 1

Total # of neighbors = 237214
Ave neighs/atom = 38.211018
Ave special neighs/atom = 1.9793814
Neighbor list builds = 322
Dangerous builds = 0

if "${myDensity} > 1.0" then "jump SELF break"

next a
jump SELF loop
variable a loop 1000
change_box all x scale 0.95 y scale 0.95 z scale 0.95 remap
Changing box ...
  orthogonal box = (518.83443 514.56256 514.56256) to (681.16557 685.43744 685.43744)
  orthogonal box = (518.83443 518.83443 514.56256) to (681.16557 681.16557 685.43744)
  orthogonal box = (518.83443 518.83443 518.83443) to (681.16557 681.16557 681.16557)
run 8000
Per MPI rank memory allocation (min/avg/max) = 11.85 | 11.87 | 11.92 Mbytes
Step PotEng Temp Press KinEng Lx Ly Lz Pzz S/CPU Density 
 1310001    2007.5715     349.4264    594.03309    6465.0481    162.33115    162.33115    162.33115    595.94933            0   0.27041251 
 1318001   -54.858771    345.59568   -4.7804703    6394.1725    162.33115    162.33115    162.33115  -0.76847139    770.60334   0.27041251 
Loop time of 10.3816 on 6 procs for 8000 steps with 6208 atoms

Performance: 665.793 ns/day, 0.036 hours/ns, 770.594 timesteps/s
99.5% CPU use with 6 MPI tasks x no OpenMP threads

MPI task timing breakdown:
Section |  min time  |  avg time  |  max time  |%varavg| %total
---------------------------------------------------------------
Pair    | 5.8893     | 6.4327     | 7.413      |  20.5 | 61.96
Bond    | 0.086062   | 0.091253   | 0.096553   |   1.2 |  0.88
Neigh   | 0.94825    | 0.95014    | 0.95215    |   0.1 |  9.15
Comm    | 1.4224     | 2.4203     | 2.9557     |  33.7 | 23.31
Output  | 4.7922e-05 | 7.3989e-05 | 0.00017309 |   0.0 |  0.00
Modify  | 0.41655    | 0.4398     | 0.46187    |   2.3 |  4.24
Other   |            | 0.04739    |            |       |  0.46

Nlocal:        1034.67 ave        1089 max         924 min
Histogram: 1 0 0 0 1 0 1 0 0 3
Nghost:        6278.00 ave        6664 max        5875 min
Histogram: 1 1 0 0 1 1 0 0 0 2
Neighs:        42618.5 ave       49160 max       36955 min
Histogram: 1 0 2 0 0 1 0 0 1 1

Total # of neighbors = 255711
Ave neighs/atom = 41.190561
Ave special neighs/atom = 1.9793814
Neighbor list builds = 316
Dangerous builds = 0

if "${myDensity} > 1.0" then "jump SELF break"

next a
jump SELF loop
variable a loop 1000
change_box all x scale 0.95 y scale 0.95 z scale 0.95 remap
Changing box ...
  orthogonal box = (522.89271 518.83443 518.83443) to (677.10729 681.16557 681.16557)
  orthogonal box = (522.89271 522.89271 518.83443) to (677.10729 677.10729 681.16557)
  orthogonal box = (522.89271 522.89271 522.89271) to (677.10729 677.10729 677.10729)
run 8000
Per MPI rank memory allocation (min/avg/max) = 11.85 | 11.88 | 11.93 Mbytes
Step PotEng Temp Press KinEng Lx Ly Lz Pzz S/CPU Density 
 1318001    2103.0445    345.59568    702.30677    6394.1725    154.21459    154.21459    154.21459    696.38588            0   0.31539584 
 1326001   -181.57498    347.03005    4.9518042    6420.7112    154.21459    154.21459    154.21459    1.3715343    711.90477   0.31539584 
Loop time of 11.2376 on 6 procs for 8000 steps with 6208 atoms

Performance: 615.078 ns/day, 0.039 hours/ns, 711.896 timesteps/s
99.6% CPU use with 6 MPI tasks x no OpenMP threads

MPI task timing breakdown:
Section |  min time  |  avg time  |  max time  |%varavg| %total
---------------------------------------------------------------
Pair    | 5.7815     | 6.8549     | 8.0587     |  33.0 | 61.00
Bond    | 0.080164   | 0.090557   | 0.096096   |   2.1 |  0.81
Neigh   | 1.0796     | 1.0802     | 1.0812     |   0.0 |  9.61
Comm    | 1.4971     | 2.7188     | 3.83       |  54.0 | 24.19
Output  | 4.077e-05  | 7.24e-05   | 0.000175   |   0.0 |  0.00
Modify  | 0.39027    | 0.44098    | 0.46748    |   4.5 |  3.92
Other   |            | 0.05204    |            |       |  0.46

Nlocal:        1034.67 ave        1170 max         841 min
Histogram: 1 0 1 0 1 0 0 0 1 2
Nghost:        6807.17 ave        7160 max        6416 min
Histogram: 1 0 0 1 1 0 1 1 0 1
Neighs:        45109.2 ave       58458 max       33494 min
Histogram: 2 0 1 0 1 0 0 0 0 2

Total # of neighbors = 270655
Ave neighs/atom = 43.597777
Ave special neighs/atom = 1.9793814
Neighbor list builds = 319
Dangerous builds = 0

if "${myDensity} > 1.0" then "jump SELF break"

next a
jump SELF loop
variable a loop 1000
change_box all x scale 0.95 y scale 0.95 z scale 0.95 remap
Changing box ...
  orthogonal box = (526.74807 522.89271 522.89271) to (673.25193 677.10729 677.10729)
  orthogonal box = (526.74807 526.74807 522.89271) to (673.25193 673.25193 677.10729)
  orthogonal box = (526.74807 526.74807 526.74807) to (673.25193 673.25193 673.25193)
run 8000
Per MPI rank memory allocation (min/avg/max) = 11.86 | 11.88 | 11.93 Mbytes
Step PotEng Temp Press KinEng Lx Ly Lz Pzz S/CPU Density 
 1326001    2090.6989    347.03005    841.92042    6420.7112    146.50386    146.50386    146.50386    838.48678            0   0.36786218 
 1334001   -211.33667    345.23973   -5.1337013    6387.5867    146.50386    146.50386    146.50386   -2.7075944    621.66096   0.36786218 
Loop time of 12.8689 on 6 procs for 8000 steps with 6208 atoms

Performance: 537.110 ns/day, 0.045 hours/ns, 621.655 timesteps/s
98.4% CPU use with 6 MPI tasks x no OpenMP threads

MPI task timing breakdown:
Section |  min time  |  avg time  |  max time  |%varavg| %total
---------------------------------------------------------------
Pair    | 4.6417     | 7.3669     | 9.3932     |  53.8 | 57.25
Bond    | 0.07043    | 0.090776   | 0.10099    |   3.5 |  0.71
Neigh   | 1.2328     | 1.2349     | 1.2368     |   0.1 |  9.60
Comm    | 1.5585     | 3.6235     | 6.4469     |  79.2 | 28.16
Output  | 3.8862e-05 | 6.7035e-05 | 0.00015593 |   0.0 |  0.00
Modify  | 0.34263    | 0.44078    | 0.4879     |   7.5 |  3.43
Other   |            | 0.112      |            |       |  0.87

Nlocal:        1034.67 ave        1189 max         757 min
Histogram: 1 0 0 0 0 1 1 0 1 2
Nghost:        7351.50 ave        7487 max        7134 min
Histogram: 1 0 0 0 0 2 1 0 1 1
Neighs:        48842.2 ave       63952 max       27908 min
Histogram: 1 0 0 0 2 0 0 2 0 1

Total # of neighbors = 293053
Ave neighs/atom = 47.205702
Ave special neighs/atom = 1.9793814
Neighbor list builds = 320
Dangerous builds = 0

if "${myDensity} > 1.0" then "jump SELF break"

next a
jump SELF loop
variable a loop 1000
change_box all x scale 0.95 y scale 0.95 z scale 0.95 remap
Changing box ...
  orthogonal box = (530.41067 526.74807 526.74807) to (669.58933 673.25193 673.25193)
  orthogonal box = (530.41067 530.41067 526.74807) to (669.58933 669.58933 673.25193)
  orthogonal box = (530.41067 530.41067 530.41067) to (669.58933 669.58933 669.58933)
run 8000
Per MPI rank memory allocation (min/avg/max) = 11.87 | 11.89 | 11.94 Mbytes
Step PotEng Temp Press KinEng Lx Ly Lz Pzz S/CPU Density 
 1334001    1958.2575    345.23973    958.07306    6387.5867    139.17867    139.17867    139.17867    963.24678            0   0.42905634 
 1342001   -363.81743    348.49163   0.78445586     6447.753    139.17867    139.17867    139.17867    7.3990785    571.10259   0.42905634 
Loop time of 14.0081 on 6 procs for 8000 steps with 6208 atoms

Performance: 493.428 ns/day, 0.049 hours/ns, 571.098 timesteps/s
97.1% CPU use with 6 MPI tasks x no OpenMP threads

MPI task timing breakdown:
Section |  min time  |  avg time  |  max time  |%varavg| %total
---------------------------------------------------------------
Pair    | 5.3108     | 8.1424     | 9.9978     |  56.8 | 58.13
Bond    | 0.072933   | 0.093993   | 0.10578    |   3.6 |  0.67
Neigh   | 1.3212     | 1.3259     | 1.3309     |   0.3 |  9.47
Comm    | 1.9449     | 3.8422     | 6.735      |  84.2 | 27.43
Output  | 4.1008e-05 | 6.8347e-05 | 0.00016308 |   0.0 |  0.00
Modify  | 0.35154    | 0.44089    | 0.4959     |   7.1 |  3.15
Other   |            | 0.1626     |            |       |  1.16

Nlocal:        1034.67 ave        1111 max         874 min
Histogram: 1 0 0 0 0 1 0 1 1 2
Nghost:        7932.83 ave        8112 max        7716 min
Histogram: 1 0 1 0 0 1 0 2 0 1
Neighs:        53134.3 ave       61814 max       35561 min
Histogram: 1 0 0 0 0 1 0 1 2 1

Total # of neighbors = 318806
Ave neighs/atom = 51.354059
Ave special neighs/atom = 1.9793814
Neighbor list builds = 317
Dangerous builds = 0

if "${myDensity} > 1.0" then "jump SELF break"

next a
jump SELF loop
variable a loop 1000
change_box all x scale 0.95 y scale 0.95 z scale 0.95 remap
Changing box ...
  orthogonal box = (533.89013 530.41067 530.41067) to (666.10987 669.58933 669.58933)
  orthogonal box = (533.89013 533.89013 530.41067) to (666.10987 666.10987 669.58933)
  orthogonal box = (533.89013 533.89013 533.89013) to (666.10987 666.10987 666.10987)
run 8000
Per MPI rank memory allocation (min/avg/max) = 11.88 | 11.90 | 11.94 Mbytes
Step PotEng Temp Press KinEng Lx Ly Lz Pzz S/CPU Density 
 1342001    1855.1021    348.49163    1132.2676     6447.753    132.21973    132.21973    132.21973    1139.1595            0    0.5004302 
 1350001   -611.92087    343.24282   -22.200845    6350.6402    132.21973    132.21973    132.21973    -13.95658    572.22163    0.5004302 
Loop time of 13.9807 on 6 procs for 8000 steps with 6208 atoms

Performance: 494.395 ns/day, 0.049 hours/ns, 572.216 timesteps/s
96.0% CPU use with 6 MPI tasks x no OpenMP threads

MPI task timing breakdown:
Section |  min time  |  avg time  |  max time  |%varavg| %total
---------------------------------------------------------------
Pair    | 6.8934     | 9.0903     | 10.015     |  36.1 | 65.02
Bond    | 0.080895   | 0.09462    | 0.10336    |   2.3 |  0.68
Neigh   | 1.2246     | 1.2257     | 1.2273     |   0.1 |  8.77
Comm    | 1.9631     | 2.9309     | 5.1934     |  65.2 | 20.96
Output  | 4.6015e-05 | 7.4625e-05 | 0.00017595 |   0.0 |  0.00
Modify  | 0.38208    | 0.44091    | 0.47046    |   4.4 |  3.15
Other   |            | 0.1982     |            |       |  1.42

Nlocal:        1034.67 ave        1119 max         869 min
Histogram: 1 0 0 0 0 0 2 1 0 2
Nghost:        8765.33 ave        8875 max        8619 min
Histogram: 1 0 1 0 0 0 1 2 0 1
Neighs:        59529.8 ave       66256 max       44539 min
Histogram: 1 0 0 0 0 0 1 2 0 2

Total # of neighbors = 357179
Ave neighs/atom = 57.535277
Ave special neighs/atom = 1.9793814
Neighbor list builds = 322
Dangerous builds = 0

if "${myDensity} > 1.0" then "jump SELF break"

next a
jump SELF loop
variable a loop 1000
change_box all x scale 0.95 y scale 0.95 z scale 0.95 remap
Changing box ...
  orthogonal box = (537.19563 533.89013 533.89013) to (662.80437 666.10987 666.10987)
  orthogonal box = (537.19563 537.19563 533.89013) to (662.80437 662.80437 666.10987)
  orthogonal box = (537.19563 537.19563 537.19563) to (662.80437 662.80437 662.80437)
run 8000
Per MPI rank memory allocation (min/avg/max) = 11.89 | 11.91 | 11.95 Mbytes
Step PotEng Temp Press KinEng Lx Ly Lz Pzz S/CPU Density 
 1350001    1528.2425    343.24282     1309.921    6350.6402    125.60875    125.60875    125.60875    1315.0679            0   0.58367716 
 1358001   -785.26475    346.86502    13.065835    6417.6578    125.60875    125.60875    125.60875    22.603426    537.47825   0.58367716 
Loop time of 14.8844 on 6 procs for 8000 steps with 6208 atoms

Performance: 464.377 ns/day, 0.052 hours/ns, 537.474 timesteps/s
96.0% CPU use with 6 MPI tasks x no OpenMP threads

MPI task timing breakdown:
Section |  min time  |  avg time  |  max time  |%varavg| %total
---------------------------------------------------------------
Pair    | 8.6798     | 10.239     | 10.789     |  22.6 | 68.79
Bond    | 0.086724   | 0.092938   | 0.097616   |   1.1 |  0.62
Neigh   | 1.3316     | 1.3333     | 1.3351     |   0.1 |  8.96
Comm    | 2.0182     | 2.5624     | 4.1642     |  46.7 | 17.22
Output  | 4.3154e-05 | 6.8506e-05 | 0.00016403 |   0.0 |  0.00
Modify  | 0.40925    | 0.44219    | 0.45627    |   2.4 |  2.97
Other   |            | 0.215      |            |       |  1.44

Nlocal:        1034.67 ave        1116 max         991 min
Histogram: 1 0 3 1 0 0 0 0 0 1
Nghost:        9389.00 ave        9472 max        9324 min
Histogram: 1 1 0 1 0 1 1 0 0 1
Neighs:        67839.3 ave       76330 max       62662 min
Histogram: 2 0 0 2 1 0 0 0 0 1

Total # of neighbors = 407036
Ave neighs/atom = 65.566366
Ave special neighs/atom = 1.9793814
Neighbor list builds = 321
Dangerous builds = 0

if "${myDensity} > 1.0" then "jump SELF break"

next a
jump SELF loop
variable a loop 1000
change_box all x scale 0.95 y scale 0.95 z scale 0.95 remap
Changing box ...
  orthogonal box = (540.33585 537.19563 537.19563) to (659.66415 662.80437 662.80437)
  orthogonal box = (540.33585 540.33585 537.19563) to (659.66415 659.66415 662.80437)
  orthogonal box = (540.33585 540.33585 540.33585) to (659.66415 659.66415 659.66415)
run 8000
Per MPI rank memory allocation (min/avg/max) = 11.89 | 11.92 | 11.96 Mbytes
Step PotEng Temp Press KinEng Lx Ly Lz Pzz S/CPU Density 
 1358001    1597.6219    346.86502    1620.5035    6417.6578    119.32831    119.32831    119.32831    1601.3891            0   0.68077231 
 1366001   -1069.4693    350.23455    10.315438    6480.0003    119.32831    119.32831    119.32831    34.263708    475.59723   0.68077231 
Loop time of 16.8211 on 6 procs for 8000 steps with 6208 atoms

Performance: 410.913 ns/day, 0.058 hours/ns, 475.594 timesteps/s
96.0% CPU use with 6 MPI tasks x no OpenMP threads

MPI task timing breakdown:
Section |  min time  |  avg time  |  max time  |%varavg| %total
---------------------------------------------------------------
Pair    | 11.162     | 11.735     | 12.677     |  14.3 | 69.76
Bond    | 0.090122   | 0.093524   | 0.099044   |   1.1 |  0.56
Neigh   | 1.5293     | 1.5301     | 1.531      |   0.1 |  9.10
Comm    | 1.8545     | 2.7885     | 3.3784     |  29.0 | 16.58
Output  | 3.8147e-05 | 6.1591e-05 | 0.00016403 |   0.0 |  0.00
Modify  | 0.43553    | 0.44246    | 0.46004    |   1.4 |  2.63
Other   |            | 0.2319     |            |       |  1.38

Nlocal:        1034.67 ave        1074 max         979 min
Histogram: 1 0 0 0 1 0 2 1 0 1
Nghost:        10437.2 ave       10495 max       10396 min
Histogram: 2 0 0 1 1 0 1 0 0 1
Neighs:        77529.8 ave       83185 max       68735 min
Histogram: 1 0 0 0 1 0 1 1 1 1

Total # of neighbors = 465179
Ave neighs/atom = 74.932184
Ave special neighs/atom = 1.9793814
Neighbor list builds = 326
Dangerous builds = 0

if "${myDensity} > 1.0" then "jump SELF break"

next a
jump SELF loop
variable a loop 1000
change_box all x scale 0.95 y scale 0.95 z scale 0.95 remap
Changing box ...
  orthogonal box = (543.31905 540.33585 540.33585) to (656.68095 659.66415 659.66415)
  orthogonal box = (543.31905 543.31905 540.33585) to (656.68095 656.68095 659.66415)
  orthogonal box = (543.31905 543.31905 543.31905) to (656.68095 656.68095 656.68095)
run 8000
Per MPI rank memory allocation (min/avg/max) = 11.91 | 11.93 | 11.98 Mbytes
Step PotEng Temp Press KinEng Lx Ly Lz Pzz S/CPU Density 
 1366001    1310.1413    350.23455    1900.8797    6480.0003    113.36189    113.36189    113.36189    1911.7995            0   0.79401931 
 1374001   -1626.8477    352.56752    72.974833    6523.1647    113.36189    113.36189    113.36189    88.949078    421.56153   0.79401931 
Loop time of 18.9772 on 6 procs for 8000 steps with 6208 atoms

Performance: 364.227 ns/day, 0.066 hours/ns, 421.558 timesteps/s
96.2% CPU use with 6 MPI tasks x no OpenMP threads

MPI task timing breakdown:
Section |  min time  |  avg time  |  max time  |%varavg| %total
---------------------------------------------------------------
Pair    | 13.563     | 13.707     | 13.942     |   3.2 | 72.23
Bond    | 0.096714   | 0.097982   | 0.098997   |   0.3 |  0.52
Neigh   | 1.7791     | 1.7796     | 1.7806     |   0.0 |  9.38
Comm    | 2.4827     | 2.701      | 2.8612     |   7.9 | 14.23
Output  | 4.3154e-05 | 6.791e-05  | 0.000175   |   0.0 |  0.00
Modify  | 0.43698    | 0.44255    | 0.44864    |   0.6 |  2.33
Other   |            | 0.2487     |            |       |  1.31

Nlocal:        1034.67 ave        1075 max        1005 min
Histogram: 1 0 2 1 0 0 0 0 1 1
Nghost:        11407.3 ave       11475 max       11342 min
Histogram: 2 0 0 1 0 0 0 1 1 1
Neighs:        90231.3 ave       95533 max       86415 min
Histogram: 1 1 1 1 0 0 0 0 1 1

Total # of neighbors = 541388
Ave neighs/atom = 87.208119
Ave special neighs/atom = 1.9793814
Neighbor list builds = 330
Dangerous builds = 0

if "${myDensity} > 1.0" then "jump SELF break"

next a
jump SELF loop
variable a loop 1000
change_box all x scale 0.95 y scale 0.95 z scale 0.95 remap
Changing box ...
  orthogonal box = (546.15310 543.31905 543.31905) to (653.84690 656.68095 656.68095)
  orthogonal box = (546.15310 546.15310 543.31905) to (653.84690 653.84690 656.68095)
  orthogonal box = (546.15310 546.15310 546.15310) to (653.84690 653.84690 653.84690)
run 8000
Per MPI rank memory allocation (min/avg/max) = 12.30 | 12.33 | 12.37 Mbytes
Step PotEng Temp Press KinEng Lx Ly Lz Pzz S/CPU Density 
 1374001    1056.3628    352.56752    2386.2317    6523.1647     107.6938     107.6938     107.6938    2410.2812            0   0.92610504 
 1382001   -2059.9698    350.08614    188.24709    6477.2545     107.6938     107.6938     107.6938    198.31362    373.45412   0.92610504 
Loop time of 21.4218 on 6 procs for 8000 steps with 6208 atoms

Performance: 322.662 ns/day, 0.074 hours/ns, 373.452 timesteps/s
96.3% CPU use with 6 MPI tasks x no OpenMP threads

MPI task timing breakdown:
Section |  min time  |  avg time  |  max time  |%varavg| %total
---------------------------------------------------------------
Pair    | 15.572     | 15.946     | 16.227     |   5.3 | 74.44
Bond    | 0.09687    | 0.10005    | 0.10206    |   0.5 |  0.47
Neigh   | 1.8546     | 1.8562     | 1.8577     |   0.1 |  8.66
Comm    | 2.5435     | 2.8153     | 3.2284     |  13.3 | 13.14
Output  | 5.0068e-05 | 7.4228e-05 | 0.00017309 |   0.0 |  0.00
Modify  | 0.43342    | 0.4425     | 0.44825    |   0.7 |  2.07
Other   |            | 0.2618     |            |       |  1.22

Nlocal:        1034.67 ave        1045 max        1022 min
Histogram: 1 1 0 0 0 0 2 0 1 1
Nghost:        12562.2 ave       12596 max       12518 min
Histogram: 1 0 1 1 0 0 0 1 0 2
Neighs:        105164.0 ave      106345 max      103925 min
Histogram: 2 0 0 0 0 0 2 1 0 1

Total # of neighbors = 630983
Ave neighs/atom = 101.64030
Ave special neighs/atom = 1.9793814
Neighbor list builds = 336
Dangerous builds = 0

if "${myDensity} > 1.0" then "jump SELF break"

next a
jump SELF loop
variable a loop 1000
change_box all x scale 0.95 y scale 0.95 z scale 0.95 remap
Changing box ...
  orthogonal box = (548.84545 546.15310 546.15310) to (651.15455 653.84690 653.84690)
  orthogonal box = (548.84545 548.84545 546.15310) to (651.15455 651.15455 653.84690)
  orthogonal box = (548.84545 548.84545 548.84545) to (651.15455 651.15455 651.15455)
run 8000
Per MPI rank memory allocation (min/avg/max) = 12.32 | 12.34 | 12.39 Mbytes
Step PotEng Temp Press KinEng Lx Ly Lz Pzz S/CPU Density 
 1382001    1154.8489    350.08614    3129.2282    6477.2545    102.30911    102.30911    102.30911    3136.0787            0    1.0801633 
 1390001    -2834.555    354.34759    538.31617    6556.0994    102.30911    102.30911    102.30911    541.08367    324.17344    1.0801633 
Loop time of 24.6783 on 6 procs for 8000 steps with 6208 atoms

Performance: 280.085 ns/day, 0.086 hours/ns, 324.172 timesteps/s
96.5% CPU use with 6 MPI tasks x no OpenMP threads

MPI task timing breakdown:
Section |  min time  |  avg time  |  max time  |%varavg| %total
---------------------------------------------------------------
Pair    | 18.095     | 18.611     | 19.153     |   7.7 | 75.42
Bond    | 0.092427   | 0.095643   | 0.10239    |   1.2 |  0.39
Neigh   | 2.1671     | 2.169      | 2.1712     |   0.1 |  8.79
Comm    | 2.5635     | 3.0842     | 3.6136     |  18.7 | 12.50
Output  | 4.0054e-05 | 6.3936e-05 | 0.00015807 |   0.0 |  0.00
Modify  | 0.43807    | 0.44232    | 0.44688    |   0.5 |  1.79
Other   |            | 0.2759     |            |       |  1.12

Nlocal:        1034.67 ave        1051 max        1014 min
Histogram: 1 0 0 0 2 1 0 0 1 1
Nghost:        13765.2 ave       13837 max       13727 min
Histogram: 2 1 1 0 0 0 1 0 0 1
Neighs:        122967.0 ave      127357 max      118381 min
Histogram: 1 1 0 1 0 0 1 0 1 1

Total # of neighbors = 737803
Ave neighs/atom = 118.84713
Ave special neighs/atom = 1.9793814
Neighbor list builds = 330
Dangerous builds = 0

if "${myDensity} > 1.0" then "jump SELF break"
jump SELF break

####Replicate to form slab

replicate 1 1 7
Replicating atoms ...
  orthogonal box = (548.84545 548.84545 548.84545) to (651.15455 651.15455 1265.0092)
  1 by 1 by 6 MPI processor grid
  43456 atoms
  43008 bonds
Finding 1-2 1-3 1-4 neighbors ...
  special bond factors lj:    0        1        1       
  special bond factors coul:  0        1        1       
     2 = max # of 1-2 neighbors
     6 = max # of special neighbors
  special bonds CPU = 0.001 seconds
  replicate CPU = 0.004 seconds

run 1
Per MPI rank memory allocation (min/avg/max) = 26.63 | 26.65 | 26.70 Mbytes
Step PotEng Temp Press KinEng Lx Ly Lz Pzz S/CPU Density 
 1390001   -19841.885    354.29866    538.31617    45892.696    102.30911    102.30911    716.16376    541.08367            0    1.0801633 
 1390002   -19785.645    353.79989    536.26241    45828.089    102.30911    102.30911    716.16376    535.91814    47.700489    1.0801633 
Loop time of 0.0209977 on 6 procs for 1 steps with 43456 atoms

Performance: 41.147 ns/day, 0.583 hours/ns, 47.624 timesteps/s
99.8% CPU use with 6 MPI tasks x no OpenMP threads

MPI task timing breakdown:
Section |  min time  |  avg time  |  max time  |%varavg| %total
---------------------------------------------------------------
Pair    | 0.019042   | 0.019532   | 0.0199     |   0.2 | 93.02
Bond    | 0.00014901 | 0.00015461 | 0.00016308 |   0.0 |  0.74
Neigh   | 0          | 0          | 0          |   0.0 |  0.00
Comm    | 0.00038385 | 0.0007331  | 0.0011621  |   0.0 |  3.49
Output  | 7.391e-05  | 9.7116e-05 | 0.00016308 |   0.0 |  0.46
Modify  | 0.00037909 | 0.00038163 | 0.00038695 |   0.0 |  1.82
Other   |            | 9.914e-05  |            |       |  0.47

Nlocal:        7242.67 ave        7252 max        7214 min
Histogram: 1 0 0 0 0 0 0 0 3 2
Nghost:        29350.8 ave       29392 max       29310 min
Histogram: 1 1 0 1 0 0 1 0 0 2
Neighs:        860770.0 ave      867747 max      852388 min
Histogram: 1 0 0 2 0 0 0 1 1 1

Total # of neighbors = 5164621
Ave neighs/atom = 118.84713
Ave special neighs/atom = 1.9793814
Neighbor list builds = 0
Dangerous builds = 0

###Delete replicated atoms

group under molecule < 129
12416 atoms in group under
group over molecule  > 192
24832 atoms in group over
group replica union under over
37248 atoms in group replica
delete_atoms group replica
WARNING: Ignoring 'compress yes' for molecular system (../delete_atoms.cpp:125)
Deleted 37248 atoms, new total = 6208

###Run simulation

fix           fixcentro all recenter INIT INIT INIT
fix           fxbal  all balance 1000 1.05 rcb

compute densidad all chunk/atom bin/1d z lower 0.01 units reduced
fix 3 all ave/chunk 1000 70 100000 densidad density/mass file den-$d-$T.profile
fix 3 all ave/chunk 1000 70 100000 densidad density/mass file den-TIA_WT-$T.profile
fix 3 all ave/chunk 1000 70 100000 densidad density/mass file den-TIA_WT-340.profile

compute  rad all gyration
variable t equal step
variable r equal c_rad
fix      radfile all print 10000 "$t $r" file rad-$d-$T.dat screen no
fix      radfile all print 10000 "$t $r" file rad-TIA_WT-$T.dat screen no
fix      radfile all print 10000 "$t $r" file rad-TIA_WT-340.dat screen no

compute	msd all msd com yes
fix	msd all ave/time 1 1 10000 c_msd[4] file mds-$d-$T.dat
fix	msd all ave/time 1 1 10000 c_msd[4] file mds-TIA_WT-$T.dat
fix	msd all ave/time 1 1 10000 c_msd[4] file mds-TIA_WT-340.dat

run 10000000
Per MPI rank memory allocation (min/avg/max) = 28.87 | 29.13 | 30.04 Mbytes
Step PotEng Temp Press KinEng Lx Ly Lz Pzz S/CPU Density 
 1390002   -1857.3812    353.98493    71.204931    6549.3896    102.30911    102.30911    716.16376    70.797409            0   0.15430905 
 2000000   -568.92488    334.00396   -5.6526129    6179.7038    102.30911    102.30911    716.16376   -8.8851139    591.08243   0.15430905 
 3000000   -661.30462    340.94578  -0.52787314    6308.1406    102.30911    102.30911    716.16376    3.9164517    593.29648   0.15430905 
 4000000   -687.99932    341.64449    2.0735513    6321.0681    102.30911    102.30911    716.16376      8.36146     592.3119   0.15430905 
 5000000   -673.76416    341.14191    -1.053943    6311.7694    102.30911    102.30911    716.16376  -0.77124216    596.71448   0.15430905 
 6000000   -655.83743    337.16891    1.5841689    6238.2614    102.30911    102.30911    716.16376   -2.4194291    587.10433   0.15430905 
 7000000   -641.73522    340.75421   0.15568605    6304.5962    102.30911    102.30911    716.16376   -4.5354878    594.35687   0.15430905 
 8000000   -573.28752    340.08188    1.0979565    6292.1569    102.30911    102.30911    716.16376    3.2095214     582.8321   0.15430905 
 9000000   -691.64977    334.97871   0.63544961    6197.7386    102.30911    102.30911    716.16376   -2.8678224    585.65522   0.15430905 
10000000   -644.05753    343.92643   -6.9196306    6363.2882    102.30911    102.30911    716.16376   -7.3205215     598.7044   0.15430905 
11000000   -532.89286    338.26959    1.1316851     6258.626    102.30911    102.30911    716.16376   -1.2228417    616.87755   0.15430905 
11390002   -638.25741    337.11593   0.75574032    6237.2811    102.30911    102.30911    716.16376    3.7892882    621.98097   0.15430905 
Loop time of 16809 on 6 procs for 10000000 steps with 6208 atoms

Performance: 514.009 ns/day, 0.047 hours/ns, 594.918 timesteps/s
99.4% CPU use with 6 MPI tasks x no OpenMP threads

MPI task timing breakdown:
Section |  min time  |  avg time  |  max time  |%varavg| %total
---------------------------------------------------------------
Pair    | 8384.8     | 11121      | 11995      |1193.7 | 66.16
Bond    | 111.7      | 114.2      | 118.51     |  20.0 |  0.68
Neigh   | 1468.6     | 1482.1     | 1499.1     |  24.0 |  8.82
Comm    | 2272.4     | 3050.6     | 5507       |2034.3 | 18.15
Output  | 0.49451    | 0.51019    | 0.52533    |   1.5 |  0.00
Modify  | 727.91     | 907.5      | 1172.5     | 572.5 |  5.40
Other   |            | 133        |            |       |  0.79

Nlocal:        1034.67 ave        1067 max         980 min
Histogram: 1 0 0 0 1 0 0 1 2 1
Nghost:        6839.17 ave        8097 max        4285 min
Histogram: 1 0 0 0 1 0 0 1 0 3
Neighs:        55381.8 ave       65683 max       42165 min
Histogram: 1 0 1 0 0 0 2 1 0 1

Total # of neighbors = 332291
Ave neighs/atom = 53.526256
Ave special neighs/atom = 1.9793814
Neighbor list builds = 373771
Dangerous builds = 0

write_data data$d-$T.out
write_data dataTIA_WT-$T.out
write_data dataTIA_WT-340.out
System init for write_data ...

shell cd ..

clear

next x

jump SELF loopT

next d
Total wall time: 25:39:39
