
bond_style  harmonic
dielectric  80.0

set type 25 charge 0.75
Setting atom values ...
  0 settings made for charge
set type 27 charge -0.75
Setting atom values ...
  0 settings made for charge
set type 28 charge -0.75
Setting atom values ...
  0 settings made for charge
set type 36 charge 0.375
Setting atom values ...
  0 settings made for charge
set type 23 charge 0.75
Setting atom values ...
  0 settings made for charge

set type 5 charge 0.75
Setting atom values ...
  1 settings made for charge
set type 7 charge -0.75
Setting atom values ...
  0 settings made for charge
set type 3  charge 0.75
Setting atom values ...
  0 settings made for charge
set type 16 charge 0.375
Setting atom values ...
  0 settings made for charge
set type 8  charge -0.75
Setting atom values ...
  1 settings made for charge

bond_coeff          1     9.600     3.81
#bond_coeff          2     9.600     5.00

pair_style  hybrid/overlay wf/cut 25.0 coul/debye 0.126 0.0

pair_coeff 30 30 wf/cut 0.004751 6.45565 1 3 19.367
pair_coeff 1 1 wf/cut 0.039564 6.467950871367303 1 2 19.403852614101908
pair_coeff 1 2 wf/cut 0.068017 5.576178403526399 1 2 16.728535210579196
pair_coeff 1 3 wf/cut 0.032686 6.5677835361737795 1 2 19.70335060852134
pair_coeff 1 4 wf/cut 0.035161 6.178228033595178 1 2 18.534684100785533
pair_coeff 1 5 wf/cut 0.171515 6.643964892255349 1 2 19.93189467676605
pair_coeff 1 6 wf/cut 0.044522 5.868502140125925 1 2 17.605506420377775
pair_coeff 1 7 wf/cut 0.073172 6.14145960937047 1 2 18.424378828111408
pair_coeff 1 8 wf/cut 0.077577 6.318176525841784 1 2 18.95452957752535
pair_coeff 1 9 wf/cut 0.229375 6.590037435016079 1 2 19.770112305048237
pair_coeff 1 10 wf/cut 0.022571 6.320571545407576 1 2 18.96171463622273
pair_coeff 1 11 wf/cut 0.025281 6.483443734640188 1 2 19.450331203920562
pair_coeff 1 12 wf/cut 0.120006 6.36518785664648 1 2 19.09556356993944
pair_coeff 1 13 wf/cut 0.294931 6.755728450520449 1 2 20.267185351561345
pair_coeff 1 14 wf/cut 0.215603 6.538208522101147 1 2 19.61462556630344
pair_coeff 1 15 wf/cut 0.050582 5.938940625510648 1 2 17.816821876531947
pair_coeff 1 16 wf/cut 0.203491 6.392507281968151 1 2 19.177521845904455
pair_coeff 1 17 wf/cut 0.116706 6.188018494610175 1 2 18.564055483830522
pair_coeff 1 18 wf/cut 0.059120 6.1344640513130955 1 2 18.403392153939286
pair_coeff 1 19 wf/cut 0.054437 6.094294827619396 1 2 18.282884482858186
pair_coeff 1 20 wf/cut 0.019979 6.496393035701747 1 2 19.48917910710524
pair_coeff 1 21 wf/cut 0.033511 6.472967463905089 1 2 19.418902391715267
pair_coeff 1 22 wf/cut 0.053464 5.579884038976499 1 2 16.7396521169295
pair_coeff 1 23 wf/cut 0.028840 6.572908139010548 1 2 19.718724417031645
pair_coeff 1 24 wf/cut 0.030487 6.183085528083141 1 2 18.549256584249424
pair_coeff 1 25 wf/cut 0.126057 6.646517494086263 1 2 19.93955248225879
pair_coeff 1 26 wf/cut 0.037087 5.873266644604083 1 2 17.61979993381225
pair_coeff 1 27 wf/cut 0.057192 6.145621669676131 1 2 18.43686500902839
pair_coeff 1 28 wf/cut 0.060220 6.322430858089529 1 2 18.967292574268587
pair_coeff 1 29 wf/cut 0.166559 6.592040039094211 1 2 19.776120117282634
pair_coeff 1 30 wf/cut 0.022157 6.322886509244067 1 2 18.9686595277322
pair_coeff 1 31 wf/cut 0.023649 6.486360198534797 1 2 19.45908059560439
pair_coeff 1 32 wf/cut 0.089698 6.368425539955892 1 2 19.105276619867674
pair_coeff 1 33 wf/cut 0.212282 6.7573688868401405 1 2 20.27210666052042
pair_coeff 1 34 wf/cut 0.156918 6.5402914181442595 1 2 19.620874254432778
pair_coeff 1 35 wf/cut 0.041217 5.943583554201671 1 2 17.830750662605013
pair_coeff 1 36 wf/cut 0.148384 6.394666170151445 1 2 19.183998510454334
pair_coeff 1 37 wf/cut 0.087498 6.191219964195186 1 2 18.57365989258556
pair_coeff 1 38 wf/cut 0.047275 6.139108925912469 1 2 18.417326777737408
pair_coeff 1 39 wf/cut 0.043970 6.098946985727069 1 2 18.296840957181207
pair_coeff 1 40 wf/cut 0.019979 6.496393035701747 1 2 19.48917910710524
pair_coeff 2 2 wf/cut 0.096470 4.695110240398406 1 2 14.085330721195216
pair_coeff 2 3 wf/cut 0.061139 5.671338290828199 1 2 17.014014872484598
pair_coeff 2 4 wf/cut 0.063614 5.284424971479424 1 2 15.85327491443827
pair_coeff 2 5 wf/cut 0.199968 5.766386193227936 1 2 17.299158579683805
pair_coeff 2 6 wf/cut 0.072975 4.980134552672144 1 2 14.940403658016432
pair_coeff 2 7 wf/cut 0.101625 5.2592548053112145 1 2 15.777764415933643
pair_coeff 2 8 wf/cut 0.106030 5.436374588857539 1 2 16.30912376657262
pair_coeff 2 9 wf/cut 0.257828 5.7131654456309935 1 2 17.139496336892982
pair_coeff 2 10 wf/cut 0.051024 5.412393397897493 1 2 16.23718019369248
pair_coeff 2 11 wf/cut 0.053734 5.578930397816427 1 2 16.736791193449278
pair_coeff 2 12 wf/cut 0.148459 5.486299347261422 1 2 16.458898041784266
pair_coeff 2 13 wf/cut 0.323384 5.879238002082802 1 2 17.63771400624841
pair_coeff 2 14 wf/cut 0.244056 5.661218822883835 1 2 16.983656468651503
pair_coeff 2 15 wf/cut 0.079035 5.052524512175333 1 2 15.157573536526
pair_coeff 2 16 wf/cut 0.231944 5.515411637199979 1 2 16.54623491159994
pair_coeff 2 17 wf/cut 0.145159 5.3090163197417555 1 2 15.927048959225267
pair_coeff 2 18 wf/cut 0.087573 5.249990542761369 1 2 15.749971628284106
pair_coeff 2 19 wf/cut 0.082890 5.208722790322849 1 2 15.626168370968546
pair_coeff 2 20 wf/cut 0.048432 5.580329252471181 1 2 16.740987757413542
pair_coeff 2 21 wf/cut 0.061964 5.577215175821233 1 2 16.731645527463698
pair_coeff 2 22 wf/cut 0.081917 4.696396560631559 1 2 14.089189681894677
pair_coeff 2 23 wf/cut 0.057293 5.67211261999139 1 2 17.016337859974172
pair_coeff 2 24 wf/cut 0.058940 5.285212528563172 1 2 15.855637585689518
pair_coeff 2 25 wf/cut 0.154510 5.767769508320207 1 2 17.30330852496062
pair_coeff 2 26 wf/cut 0.065540 4.981125987510791 1 2 14.943377962532374
pair_coeff 2 27 wf/cut 0.085645 5.260651874488179 1 2 15.781955623464537
pair_coeff 2 28 wf/cut 0.088673 5.437809343618614 1 2 16.313428030855842
pair_coeff 2 29 wf/cut 0.195012 5.714358676536591 1 2 17.143076029609773
pair_coeff 2 30 wf/cut 0.050610 5.412530359493723 1 2 16.23759107848117
pair_coeff 2 31 wf/cut 0.052102 5.579325356579805 1 2 16.737976069739414
pair_coeff 2 32 wf/cut 0.118151 5.487774115196598 1 2 16.463322345589795
pair_coeff 2 33 wf/cut 0.240735 5.880303283956183 1 2 17.64090985186855
pair_coeff 2 34 wf/cut 0.185371 5.662447134978403 1 2 16.987341404935208
pair_coeff 2 35 wf/cut 0.069670 5.053695239348068 1 2 15.161085718044204
pair_coeff 2 36 wf/cut 0.176837 5.516638738971832 1 2 16.549916216915495
pair_coeff 2 37 wf/cut 0.115951 5.310437234694913 1 2 15.931311704084738
pair_coeff 2 38 wf/cut 0.075728 5.251325825579545 1 2 15.753977476738633
pair_coeff 2 39 wf/cut 0.072423 5.20997288304294 1 2 15.629918649128818
pair_coeff 2 40 wf/cut 0.048432 5.580329252471181 1 2 16.740987757413542
pair_coeff 3 3 wf/cut 0.019117 6.671340524039856 1 2 20.014021572119567
pair_coeff 3 4 wf/cut 0.028283 6.279399881910995 1 2 18.838199645732985
pair_coeff 3 5 wf/cut 0.121938 6.73819193132635 1 2 20.21457579397905
pair_coeff 3 6 wf/cut 0.037644 5.966686347623176 1 2 17.90005904286953
pair_coeff 3 7 wf/cut 0.000493 6.236987380482699 1 2 18.710962141448096
pair_coeff 3 8 wf/cut 0.000526 6.413575163938182 1 2 19.240725491814544
pair_coeff 3 9 wf/cut 0.102701 6.684083406034673 1 2 20.052250218104017
pair_coeff 3 10 wf/cut 0.015693 6.433541011383533 1 2 19.3006230341506
pair_coeff 3 11 wf/cut 0.018403 6.592557574989555 1 2 19.777672724968664
pair_coeff 3 12 wf/cut 0.113128 6.4596938105680355 1 2 19.37908143170411
pair_coeff 3 13 wf/cut 0.104796 6.849685211660051 1 2 20.549055634980153
pair_coeff 3 14 wf/cut 0.115276 6.632280360446061 1 2 19.896841081338184
pair_coeff 3 15 wf/cut 0.043704 6.036179732070119 1 2 18.10853919621036
pair_coeff 3 16 wf/cut 0.087370 6.4866030031823305 1 2 19.45980900954699
pair_coeff 3 17 wf/cut 0.109828 6.2825460057664415 1 2 18.847638017299325
pair_coeff 3 18 wf/cut 0.052242 6.2310615597122725 1 2 18.693184679136817
pair_coeff 3 19 wf/cut 0.047559 6.191153675456269 1 2 18.573461026368804
pair_coeff 3 20 wf/cut 0.013101 6.617996254538358 1 2 19.853988763615074
pair_coeff 3 21 wf/cut 0.026633 6.575236990212751 1 2 19.725710970638254
pair_coeff 3 22 wf/cut 0.046586 5.67591070475063 1 2 17.02773211425189
pair_coeff 3 23 wf/cut 0.016267 6.6786690213492745 1 2 20.036007064047823
pair_coeff 3 24 wf/cut 0.023609 6.28697050091405 1 2 18.860911502742148
pair_coeff 3 25 wf/cut 0.088471 6.7410021187479785 1 2 20.223006356243935
pair_coeff 3 26 wf/cut 0.030209 5.973496417353158 1 2 17.920489252059475
pair_coeff 3 27 wf/cut 0.000375 6.242202340571064 1 2 18.726607021713193
pair_coeff 3 28 wf/cut 0.000395 6.41884518513886 1 2 19.25653555541658
pair_coeff 3 29 wf/cut 0.087295 6.686244113621416 1 2 20.058732340864246
pair_coeff 3 30 wf/cut 0.015279 6.438064853494475 1 2 19.314194560483426
pair_coeff 3 31 wf/cut 0.016771 6.597859600272992 1 2 19.793578800818977
pair_coeff 3 32 wf/cut 0.082820 6.463434808995108 1 2 19.390304426985324
pair_coeff 3 33 wf/cut 0.089077 6.851438991432198 1 2 20.554316974296594
pair_coeff 3 34 wf/cut 0.097985 6.634536462444846 1 2 19.903609387334537
pair_coeff 3 35 wf/cut 0.034339 6.042553594266142 1 2 18.127660782798426
pair_coeff 3 36 wf/cut 0.062880 6.488951472342971 1 2 19.466854417028912
pair_coeff 3 37 wf/cut 0.080620 6.286259565568102 1 2 18.858778696704306
pair_coeff 3 38 wf/cut 0.040397 6.23694969931501 1 2 18.71084909794503
pair_coeff 3 39 wf/cut 0.037092 6.197406382364393 1 2 18.59221914709318
pair_coeff 3 40 wf/cut 0.013101 6.617996254538358 1 2 19.853988763615074
pair_coeff 4 4 wf/cut 0.030758 5.8890615748048605 1 2 17.667184724414582
pair_coeff 4 5 wf/cut 0.167112 6.352015695367313 1 2 19.056047086101938
pair_coeff 4 6 wf/cut 0.040119 5.577947754246859 1 2 16.733843262740578
pair_coeff 4 7 wf/cut 0.068769 5.849866323299111 1 2 17.549598969897332
pair_coeff 4 8 wf/cut 0.073174 6.026541387517959 1 2 18.079624162553877
pair_coeff 4 9 wf/cut 0.224972 6.298063007043266 1 2 18.894189021129797
pair_coeff 4 10 wf/cut 0.018168 6.03696547344559 1 2 18.11089642033677
pair_coeff 4 11 wf/cut 0.020878 6.198088878491606 1 2 18.594266635474817
pair_coeff 4 12 wf/cut 0.115603 6.073287961608412 1 2 18.219863884825237
pair_coeff 4 13 wf/cut 0.290527 6.463775207339586 1 2 19.39132562201876
pair_coeff 4 14 wf/cut 0.211200 6.246251077325644 1 2 18.73875323197693
pair_coeff 4 15 wf/cut 0.046179 5.648007650359314 1 2 16.94402295107794
pair_coeff 4 16 wf/cut 0.199088 6.1005286446452045 1 2 18.301585933935613
pair_coeff 4 17 wf/cut 0.112303 5.896099182190375 1 2 17.688297546571125
pair_coeff 4 18 wf/cut 0.054717 5.84319611761197 1 2 17.52958835283591
pair_coeff 4 19 wf/cut 0.050034 5.803211551983609 1 2 17.40963465595083
pair_coeff 4 20 wf/cut 0.015576 6.214617146494642 1 2 18.643851439483925
pair_coeff 4 21 wf/cut 0.029108 6.184377266229273 1 2 18.55313179868782
pair_coeff 4 22 wf/cut 0.049061 5.288433024843104 1 2 15.865299074529311
pair_coeff 4 23 wf/cut 0.024437 6.285985931141882 1 2 18.857957793425648
pair_coeff 4 24 wf/cut 0.026084 5.895181038887271 1 2 17.685543116661812
pair_coeff 4 25 wf/cut 0.121654 6.3546176961456355 1 2 19.063853088436908
pair_coeff 4 26 wf/cut 0.032684 5.583620888610048 1 2 16.75086266583014
pair_coeff 4 27 wf/cut 0.052789 5.854435916763915 1 2 17.563307750291745
pair_coeff 4 28 wf/cut 0.055817 6.031184910048361 1 2 18.093554730145083
pair_coeff 4 29 wf/cut 0.162155 6.300073473520442 1 2 18.900220420561325
pair_coeff 4 30 wf/cut 0.017754 6.038590687548953 1 2 18.115772062646858
pair_coeff 4 31 wf/cut 0.019246 6.20213243224441 1 2 18.606397296733228
pair_coeff 4 32 wf/cut 0.085295 6.076667470375622 1 2 18.230002411126865
pair_coeff 4 33 wf/cut 0.207879 6.4653998696548625 1 2 19.396199608964587
pair_coeff 4 34 wf/cut 0.152515 6.248347277402027 1 2 18.74504183220608
pair_coeff 4 35 wf/cut 0.036814 5.653400669933968 1 2 16.960202009801904
pair_coeff 4 36 wf/cut 0.143981 6.1027057764377375 1 2 18.308117329313212
pair_coeff 4 37 wf/cut 0.083095 5.899444861363162 1 2 17.698334584089487
pair_coeff 4 38 wf/cut 0.042872 5.848454222246143 1 2 17.545362666738427
pair_coeff 4 39 wf/cut 0.039567 5.808550835350359 1 2 17.425652506051076
pair_coeff 4 40 wf/cut 0.015576 6.214617146494642 1 2 18.643851439483925
pair_coeff 5 5 wf/cut 0.089916 6.839051042416954 1 2 20.51715312725086
pair_coeff 5 6 wf/cut 0.176473 6.049093128275473 1 2 18.14727938482642
pair_coeff 5 7 wf/cut 0.001522 6.329860382208001 1 2 18.989581146624005
pair_coeff 5 8 wf/cut 0.001554 6.507087894628845 1 2 19.521263683886534
pair_coeff 5 9 wf/cut 0.607820 6.786238537205683 1 2 20.358715611617047
pair_coeff 5 10 wf/cut 0.154522 6.477800731622431 1 2 19.433402194867295
pair_coeff 5 11 wf/cut 0.157232 6.644606745714045 1 2 19.933820237142136
pair_coeff 5 12 wf/cut 0.251957 6.5582801074116395 1 2 19.674840322234918
pair_coeff 5 13 wf/cut 0.691657 6.952550947859904 1 2 20.85765284357971
pair_coeff 5 14 wf/cut 0.544942 6.734244851368496 1 2 20.20273455410549
pair_coeff 5 15 wf/cut 0.182533 6.121907195991114 1 2 18.365721587973344
pair_coeff 5 16 wf/cut 0.124237 6.588371399225676 1 2 19.76511419767703
pair_coeff 5 17 wf/cut 0.248657 6.381027696653046 1 2 19.143083089959138
pair_coeff 5 18 wf/cut 0.191071 6.319850876308843 1 2 18.95955262892653
pair_coeff 5 19 wf/cut 0.186388 6.2782756347766915 1 2 18.834826904330075
pair_coeff 5 20 wf/cut 0.151930 6.644914452592528 1 2 19.934743357777585
pair_coeff 5 21 wf/cut 0.165462 6.6442230427261695 1 2 19.93266912817851
pair_coeff 5 22 wf/cut 0.185415 5.7668587075646895 1 2 17.300576122694068
pair_coeff 5 23 wf/cut 0.160791 6.738370816695987 1 2 20.21511245008796
pair_coeff 5 24 wf/cut 0.162438 6.352227758045304 1 2 19.056683274135914
pair_coeff 5 25 wf/cut 0.076528 6.839775073180529 1 2 20.519325219541585
pair_coeff 5 26 wf/cut 0.169038 6.0493803544908396 1 2 18.14814106347252
pair_coeff 5 27 wf/cut 0.001403 6.330338025744615 1 2 18.991014077233842
pair_coeff 5 28 wf/cut 0.001424 6.507609785991295 1 2 19.522829357973883
pair_coeff 5 29 wf/cut 0.516647 6.786966179847217 1 2 20.36089853954165
pair_coeff 5 30 wf/cut 0.154108 6.477855546012645 1 2 19.433566638037934
pair_coeff 5 31 wf/cut 0.155600 6.644688317632491 1 2 19.934064952897472
pair_coeff 5 32 wf/cut 0.221649 6.558922216808411 1 2 19.676766650425233
pair_coeff 5 33 wf/cut 0.587908 6.953270762564632 1 2 20.859812287693895
pair_coeff 5 34 wf/cut 0.463200 6.734965561624807 1 2 20.20489668487442
pair_coeff 5 35 wf/cut 0.173168 6.122239691611766 1 2 18.366719074835295
pair_coeff 5 36 wf/cut 0.103828 6.589083179632521 1 2 19.767249538897563
pair_coeff 5 37 wf/cut 0.219449 6.381655047319296 1 2 19.14496514195789
pair_coeff 5 38 wf/cut 0.179226 6.320242196579514 1 2 18.96072658973854
pair_coeff 5 39 wf/cut 0.175921 6.27864243896636 1 2 18.83592731689908
pair_coeff 5 40 wf/cut 0.151930 6.644914452592528 1 2 19.934743357777585
pair_coeff 6 6 wf/cut 0.049480 5.270073550243385 1 2 15.810220650730155
pair_coeff 6 7 wf/cut 0.078130 5.545103888084069 1 2 16.635311664252207
pair_coeff 6 8 wf/cut 0.082535 5.721983178129665 1 2 17.165949534388993
pair_coeff 6 9 wf/cut 0.234333 5.995374866482686 1 2 17.986124599448058
pair_coeff 6 10 wf/cut 0.027529 5.714672842433839 1 2 17.14401852730152
pair_coeff 6 11 wf/cut 0.030239 5.879183169613761 1 2 17.637549508841282
pair_coeff 6 12 wf/cut 0.124964 5.769878425481944 1 2 17.30963527644583
pair_coeff 6 13 wf/cut 0.299889 6.1612197345718664 1 2 18.4836592037156
pair_coeff 6 14 wf/cut 0.220561 5.943524169558512 1 2 17.830572508675537
pair_coeff 6 15 wf/cut 0.055540 5.341186580911172 1 2 16.023559742733518
pair_coeff 6 16 wf/cut 0.208449 5.797765867232053 1 2 17.393297601696162
pair_coeff 6 17 wf/cut 0.121665 5.592676667454632 1 2 16.778030002363895
pair_coeff 6 18 wf/cut 0.064078 5.537383848868321 1 2 16.612151546604963
pair_coeff 6 19 wf/cut 0.059395 5.496867679432823 1 2 16.490603038298467
pair_coeff 6 20 wf/cut 0.024937 5.887264113119765 1 2 17.661792339359295
pair_coeff 6 21 wf/cut 0.038469 5.872091702440819 1 2 17.616275107322455
pair_coeff 6 22 wf/cut 0.058422 4.983057318967985 1 2 14.949171956903955
pair_coeff 6 23 wf/cut 0.033798 5.970212624670237 1 2 17.91063787401071
pair_coeff 6 24 wf/cut 0.035445 5.581322386503443 1 2 16.743967159510326
pair_coeff 6 25 wf/cut 0.131015 6.051283655448215 1 2 18.153850966344642
pair_coeff 6 26 wf/cut 0.042046 5.273529178305013 1 2 15.82058753491504
pair_coeff 6 27 wf/cut 0.062150 5.548382201124551 1 2 16.645146603373654
pair_coeff 6 28 wf/cut 0.065178 5.725365872076537 1 2 17.17609761622961
pair_coeff 6 29 wf/cut 0.171517 5.997120040197383 1 2 17.991360120592148
pair_coeff 6 30 wf/cut 0.027116 5.716115591130418 1 2 17.148346773391253
pair_coeff 6 31 wf/cut 0.028607 5.881066148485684 1 2 17.643198445457053
pair_coeff 6 32 wf/cut 0.094656 5.77257425641905 1 2 17.317722769257152
pair_coeff 6 33 wf/cut 0.217240 6.16266774871136 1 2 18.48800324613408
pair_coeff 6 34 wf/cut 0.161876 5.945332519051 1 2 17.835997557153
pair_coeff 6 35 wf/cut 0.046175 5.344636755005952 1 2 16.03391026501786
pair_coeff 6 36 wf/cut 0.153342 5.799630893236802 1 2 17.398892679710407
pair_coeff 6 37 wf/cut 0.092457 5.595329366190724 1 2 16.785988098572172
pair_coeff 6 38 wf/cut 0.052233 5.540935423926066 1 2 16.6228062717782
pair_coeff 6 39 wf/cut 0.048928 5.50037559161048 1 2 16.50112677483144
pair_coeff 6 40 wf/cut 0.024937 5.887264113119765 1 2 17.661792339359295
pair_coeff 7 7 wf/cut 0.079096 5.823521721060312 1 2 17.470565163180936
pair_coeff 7 8 wf/cut 0.082359 6.000582237524121 1 2 18.001746712572363
pair_coeff 7 9 wf/cut 0.262983 6.276473791430636 1 2 18.829421374291908
pair_coeff 7 10 wf/cut 0.056178 5.978735433494051 1 2 17.93620630048215
pair_coeff 7 11 wf/cut 0.058888 6.145089275635634 1 2 18.4352678269069
pair_coeff 7 12 wf/cut 0.153614 6.0500403862929435 1 2 18.150121158878832
pair_coeff 7 13 wf/cut 0.328538 6.4424403069543335 1 2 19.327320920863002
pair_coeff 7 14 wf/cut 0.249211 6.224557346027278 1 2 18.673672038081833
pair_coeff 7 15 wf/cut 0.084189 5.617298771179795 1 2 16.851896313539385
pair_coeff 7 16 wf/cut 0.001758 6.078759471752929 1 2 18.236278415258788
pair_coeff 7 17 wf/cut 0.150314 5.872796196825872 1 2 17.618388590477615
pair_coeff 7 18 wf/cut 0.092728 5.81454574012806 1 2 17.44363722038418
pair_coeff 7 19 wf/cut 0.088045 5.773404302618334 1 2 17.320212907855
pair_coeff 7 20 wf/cut 0.053587 6.146988238119009 1 2 18.44096471435703
pair_coeff 7 21 wf/cut 0.067118 6.142810853550669 1 2 18.428432560652006
pair_coeff 7 22 wf/cut 0.087071 5.260822534908925 1 2 15.782467604726776
pair_coeff 7 23 wf/cut 0.062448 6.238009317192061 1 2 18.714027951576185
pair_coeff 7 24 wf/cut 0.064094 5.850906179325341 1 2 17.552718537976023
pair_coeff 7 25 wf/cut 0.159665 6.331479448731908 1 2 18.994438346195725
pair_coeff 7 26 wf/cut 0.070695 5.546505225276659 1 2 16.639515675829976
pair_coeff 7 27 wf/cut 0.067258 5.825264832984326 1 2 17.47579449895298
pair_coeff 7 28 wf/cut 0.069297 6.002427424339147 1 2 18.00728227301744
pair_coeff 7 29 wf/cut 0.200166 6.277866750279897 1 2 18.83360025083969
pair_coeff 7 30 wf/cut 0.055765 5.978921905643417 1 2 17.93676571693025
pair_coeff 7 31 wf/cut 0.057257 6.145621669676131 1 2 18.43686500902839
pair_coeff 7 32 wf/cut 0.123306 6.051811079871612 1 2 18.155433239614837
pair_coeff 7 33 wf/cut 0.245890 6.4436539809330755 1 2 19.330961942799227
pair_coeff 7 34 wf/cut 0.190526 6.225980124267849 1 2 18.677940372803548
pair_coeff 7 35 wf/cut 0.074825 5.6188072088999945 1 2 16.856421626699984
pair_coeff 7 36 wf/cut 0.001350 6.080187764149639 1 2 18.24056329244892
pair_coeff 7 37 wf/cut 0.121106 5.874523045623452 1 2 17.623569136870355
pair_coeff 7 38 wf/cut 0.080883 5.816239431041905 1 2 17.448718293125715
pair_coeff 7 39 wf/cut 0.077578 5.775001596638995 1 2 17.325004789916985
pair_coeff 7 40 wf/cut 0.053587 6.146988238119009 1 2 18.44096471435703
pair_coeff 8 8 wf/cut 0.085622 6.177670315650897 1 2 18.533010946952693
pair_coeff 8 9 wf/cut 0.267388 6.453698205558216 1 2 19.36109461667465
pair_coeff 8 10 wf/cut 0.060583 6.155038804583549 1 2 18.46511641375065
pair_coeff 8 11 wf/cut 0.063293 6.321457293122011 1 2 18.964371879366034
pair_coeff 8 12 wf/cut 0.158019 6.22721384211578 1 2 18.681641526347338
pair_coeff 8 13 wf/cut 0.332943 6.61969178186508 1 2 19.85907534559524
pair_coeff 8 14 wf/cut 0.253616 6.401798946045327 1 2 19.205396838135982
pair_coeff 8 15 wf/cut 0.088594 5.794219764312674 1 2 17.382659292938023
pair_coeff 8 16 wf/cut 0.001791 6.2560007029022255 1 2 18.768002108706675
pair_coeff 8 17 wf/cut 0.154719 6.049988923928926 1 2 18.14996677178678
pair_coeff 8 18 wf/cut 0.097133 5.991524845146615 1 2 17.974574535439846
pair_coeff 8 19 wf/cut 0.092450 5.950364732175825 1 2 17.851094196527477
pair_coeff 8 20 wf/cut 0.057992 6.323325627682127 1 2 18.96997688304638
pair_coeff 8 21 wf/cut 0.071523 6.319407907453407 1 2 18.95822372236022
pair_coeff 8 22 wf/cut 0.091476 5.437918514751647 1 2 16.313755544254942
pair_coeff 8 23 wf/cut 0.066853 6.414637503765215 1 2 19.243912511295648
pair_coeff 8 24 wf/cut 0.068499 6.027610728824833 1 2 18.082832186474498
pair_coeff 8 25 wf/cut 0.164070 6.50867097271995 1 2 19.52601291815985
pair_coeff 8 26 wf/cut 0.075100 5.723271374681476 1 2 17.16981412404443
pair_coeff 8 27 wf/cut 0.095204 6.002225923033709 1 2 18.006677769101127
pair_coeff 8 28 wf/cut 0.072560 6.179413824459994 1 2 18.538241473379983
pair_coeff 8 29 wf/cut 0.204571 6.455074051412765 1 2 19.365222154238296
pair_coeff 8 30 wf/cut 0.060170 6.155372367938502 1 2 18.466117103815506
pair_coeff 8 31 wf/cut 0.061662 6.321931368367982 1 2 18.965794105103946
pair_coeff 8 32 wf/cut 0.127711 6.228922014398231 1 2 18.686766043194694
pair_coeff 8 33 wf/cut 0.250295 6.620903112987423 1 2 19.86270933896227
pair_coeff 8 34 wf/cut 0.194931 6.403201712664134 1 2 19.2096051379924
pair_coeff 8 35 wf/cut 0.079230 5.795615810910755 1 2 17.386847432732267
pair_coeff 8 36 wf/cut 0.001379 6.257425310960982 1 2 18.772275932882945
pair_coeff 8 37 wf/cut 0.125511 6.051653861598323 1 2 18.154961584794968
pair_coeff 8 38 wf/cut 0.085288 5.993104375441103 1 2 17.97931312632331
pair_coeff 8 39 wf/cut 0.081983 5.951847773872721 1 2 17.855543321618164
pair_coeff 8 40 wf/cut 0.057992 6.323325627682127 1 2 18.96997688304638
pair_coeff 9 9 wf/cut 0.419186 6.733634028253079 1 2 20.20090208475924
pair_coeff 9 10 wf/cut 0.212382 6.423549039740656 1 2 19.270647119221966
pair_coeff 9 11 wf/cut 0.215092 6.590387900103195 1 2 19.771163700309586
pair_coeff 9 12 wf/cut 0.309817 6.50524897581083 1 2 19.51574692743249
pair_coeff 9 13 wf/cut 0.484741 6.900050363131952 1 2 20.700151089395856
pair_coeff 9 14 wf/cut 0.405414 6.6815889712242855 1 2 20.044766913672856
pair_coeff 9 15 wf/cut 0.240393 6.068280818635755 1 2 18.204842455907265
pair_coeff 9 16 wf/cut 0.393302 6.535691224609458 1 2 19.607073673828374
pair_coeff 9 17 wf/cut 0.306517 6.327982683666391 1 2 18.98394805099917
pair_coeff 9 18 wf/cut 0.248931 6.266295198960733 1 2 18.798885596882197
pair_coeff 9 19 wf/cut 0.244248 6.2246507773507185 1 2 18.673952332052156
pair_coeff 9 20 wf/cut 0.209790 6.5905505017289965 1 2 19.771651505186988
pair_coeff 9 21 wf/cut 0.223322 6.590180270116687 1 2 19.770540810350063
pair_coeff 9 22 wf/cut 0.243275 5.713450024075365 1 2 17.140350072226095
pair_coeff 9 23 wf/cut 0.218651 6.6841805825849985 1 2 20.052541747754994
pair_coeff 9 24 wf/cut 0.220298 6.298178954636986 1 2 18.894536863910957
pair_coeff 9 25 wf/cut 0.315868 6.786739795335731 1 2 20.360219386007195
pair_coeff 9 26 wf/cut 0.226898 5.99553560612189 1 2 17.98660681836567
pair_coeff 9 27 wf/cut 0.247003 6.276768673597067 1 2 18.8303060207912
pair_coeff 9 28 wf/cut 0.250031 6.454011505099358 1 2 19.362034515298074
pair_coeff 9 29 wf/cut 0.356369 6.734156486173098 1 2 20.202469458519293
pair_coeff 9 30 wf/cut 0.211968 6.4235779793345555 1 2 19.270733938003666
pair_coeff 9 31 wf/cut 0.213460 6.590431338464252 1 2 19.771294015392755
pair_coeff 9 32 wf/cut 0.279509 6.505661229041637 1 2 19.516983687124913
pair_coeff 9 33 wf/cut 0.402093 6.900589936537501 1 2 20.701769809612504
pair_coeff 9 34 wf/cut 0.346729 6.682106650582579 1 2 20.046319951747737
pair_coeff 9 35 wf/cut 0.231028 6.06846960743136 1 2 18.20540882229408
pair_coeff 9 36 wf/cut 0.338195 6.536191669581551 1 2 19.60857500874465
pair_coeff 9 37 wf/cut 0.277309 6.328383771538186 1 2 18.98515131461456
pair_coeff 9 38 wf/cut 0.237086 6.266521616565618 1 2 18.799564849696853
pair_coeff 9 39 wf/cut 0.233781 6.224860927463627 1 2 18.674582782390882
pair_coeff 9 40 wf/cut 0.209790 6.5905505017289965 1 2 19.771651505186988
pair_coeff 10 10 wf/cut 0.005578 6.265999286288815 1 2 18.797997858866445
pair_coeff 10 11 wf/cut 0.008288 6.390932891994093 1 2 19.17279867598228
pair_coeff 10 12 wf/cut 0.103013 6.199729734496916 1 2 18.59918920349075
pair_coeff 10 13 wf/cut 0.277937 6.589117480615403 1 2 19.76735244184621
pair_coeff 10 14 wf/cut 0.198610 6.371783619045257 1 2 19.11535085713577
pair_coeff 10 15 wf/cut 0.033589 5.781664862063682 1 2 17.344994586191046
pair_coeff 10 16 wf/cut 0.186498 6.226104236834126 1 2 18.67831271050238
pair_coeff 10 17 wf/cut 0.099713 6.022605657483588 1 2 18.067816972450764
pair_coeff 10 18 wf/cut 0.042127 5.974331431598945 1 2 17.922994294796837
pair_coeff 10 19 wf/cut 0.037444 5.935671447441882 1 2 17.807014342325644
pair_coeff 10 21 wf/cut 0.016518 6.336783382464571 1 2 19.010350147393712
pair_coeff 10 22 wf/cut 0.036471 5.418375566526451 1 2 16.255126699579353
pair_coeff 10 23 wf/cut 0.011847 6.452549354094189 1 2 19.357648062282568
pair_coeff 10 24 wf/cut 0.013494 6.0532242372044625 1 2 18.15967271161339
pair_coeff 10 25 wf/cut 0.109064 6.480992623201166 1 2 19.442977869603496
pair_coeff 10 26 wf/cut 0.020094 5.727883796640076 1 2 17.18365138992023
pair_coeff 10 27 wf/cut 0.040199 5.986137211233324 1 2 17.958411633699974
pair_coeff 10 28 wf/cut 0.043227 6.162354266488605 1 2 18.487062799465814
pair_coeff 10 29 wf/cut 0.149565 6.425899535640867 1 2 19.277698606922602
pair_coeff 10 30 wf/cut 0.005164 6.279450553510229 1 2 18.838351660530687
pair_coeff 10 31 wf/cut 0.006656 6.414806714205564 1 2 19.24442014261669
pair_coeff 10 32 wf/cut 0.072705 6.20424895331838 1 2 18.61274685995514
pair_coeff 10 33 wf/cut 0.195289 6.590957221363035 1 2 19.772871664089106
pair_coeff 10 34 wf/cut 0.139925 6.374256698313246 1 2 19.12277009493974
pair_coeff 10 35 wf/cut 0.024224 5.79281450588842 1 2 17.37844351766526
pair_coeff 10 36 wf/cut 0.131391 6.228661475252712 1 2 18.685984425758136
pair_coeff 10 37 wf/cut 0.070505 6.027117316392745 1 2 18.081351949178234
pair_coeff 10 38 wf/cut 0.030282 5.983977483837185 1 2 17.951932451511553
pair_coeff 10 39 wf/cut 0.026977 5.94607610198081 1 2 17.83822830594243
pair_coeff 11 11 wf/cut 0.010998 6.53407242179841 1 2 19.60221726539523
pair_coeff 11 12 wf/cut 0.105723 6.366490684329992 1 2 19.099472052989977
pair_coeff 11 13 wf/cut 0.280647 6.755935225417062 1 2 20.267805676251186
pair_coeff 11 14 wf/cut 0.201320 6.538603519887749 1 2 19.615810559663245
pair_coeff 11 15 wf/cut 0.036299 5.946968662780402 1 2 17.840905988341206
pair_coeff 11 16 wf/cut 0.189208 6.392942886970462 1 2 19.178828660911385
pair_coeff 11 17 wf/cut 0.102423 6.189364574070181 1 2 18.56809372221054
pair_coeff 11 18 wf/cut 0.044837 6.1402119935661545 1 2 18.420635980698464
pair_coeff 11 19 wf/cut 0.040154 6.101247830628814 1 2 18.30374349188644
pair_coeff 11 20 wf/cut 0.005696 6.607723261980873 1 2 19.823169785942618
pair_coeff 11 21 wf/cut 0.019228 6.496393035701747 1 2 19.48917910710524
pair_coeff 11 22 wf/cut 0.039181 5.584501642231329 1 2 16.753504926693985
pair_coeff 11 23 wf/cut 0.014557 6.60658239133453 1 2 19.819747174003588
pair_coeff 11 24 wf/cut 0.016204 6.210508609486856 1 2 18.631525828460568
pair_coeff 11 25 wf/cut 0.111774 6.647740379710509 1 2 19.943221139131527
pair_coeff 11 26 wf/cut 0.022804 5.890170182090268 1 2 17.670510546270805
pair_coeff 11 27 wf/cut 0.042909 6.151889183567281 1 2 18.455667550701843
pair_coeff 11 28 wf/cut 0.045937 6.3282208238107795 1 2 18.984662471432337
pair_coeff 11 29 wf/cut 0.152275 6.5927216895129135 1 2 19.77816506853874
pair_coeff 11 30 wf/cut 0.007874 6.397951767513159 1 2 19.193855302539475
pair_coeff 11 31 wf/cut 0.009366 6.548412328573101 1 2 19.645236985719304
pair_coeff 11 32 wf/cut 0.075415 6.370842118401069 1 2 19.112526355203208
pair_coeff 11 33 wf/cut 0.197999 6.75777413374384 1 2 20.27332240123152
pair_coeff 11 34 wf/cut 0.142635 6.541054552668633 1 2 19.623163658005897
pair_coeff 11 35 wf/cut 0.026934 5.956563720651988 1 2 17.869691161955963
pair_coeff 11 36 wf/cut 0.134101 6.395473237725452 1 2 19.186419713176356
pair_coeff 11 37 wf/cut 0.073215 6.193703302501737 1 2 18.58110990750521
pair_coeff 11 38 wf/cut 0.032992 6.148785435376327 1 2 18.446356306128983
pair_coeff 11 39 wf/cut 0.029687 6.110345071454451 1 2 18.331035214363354
pair_coeff 11 40 wf/cut 0.005696 6.607723261980873 1 2 19.823169785942618
pair_coeff 12 12 wf/cut 0.200448 6.277850874229409 1 2 18.833552622688227
pair_coeff 12 13 wf/cut 0.375372 6.671405311072043 1 2 20.01421593321613
pair_coeff 12 14 wf/cut 0.296045 6.4532756440329795 1 2 19.35982693209894
pair_coeff 12 15 wf/cut 0.131024 5.84255485528308 1 2 17.52766456584924
pair_coeff 12 16 wf/cut 0.283933 6.307431677259977 1 2 18.92229503177993
pair_coeff 12 17 wf/cut 0.197148 6.100591694847331 1 2 18.301775084541994
pair_coeff 12 18 wf/cut 0.139562 6.040345112977554 1 2 18.12103533893266
pair_coeff 12 19 wf/cut 0.134879 5.998852825433778 1 2 17.99655847630133
pair_coeff 12 20 wf/cut 0.100421 6.367152767929573 1 2 19.101458303788718
pair_coeff 12 21 wf/cut 0.113953 6.365699666568734 1 2 19.0970989997062
pair_coeff 12 22 wf/cut 0.133906 5.487109605448974 1 2 16.46132881634692
pair_coeff 12 23 wf/cut 0.109282 6.460110665288058 1 2 19.380331995864175
pair_coeff 12 24 wf/cut 0.110929 6.07371622854753 1 2 18.22114868564259
pair_coeff 12 25 wf/cut 0.206499 6.559327404195954 1 2 19.67798221258786
pair_coeff 12 26 wf/cut 0.117529 5.770434344200525 1 2 17.311303032601575
pair_coeff 12 27 wf/cut 0.137634 6.050878049577443 1 2 18.15263414873233
pair_coeff 12 28 wf/cut 0.140662 6.22811906216779 1 2 18.68435718650337
pair_coeff 12 29 wf/cut 0.247000 6.506235094735004 1 2 19.518705284205012
pair_coeff 12 30 wf/cut 0.102599 6.199847722340906 1 2 18.59954316702272
pair_coeff 12 31 wf/cut 0.104091 6.366663725733202 1 2 19.099991177199605
pair_coeff 12 32 wf/cut 0.170140 6.278875223812024 1 2 18.836625671436074
pair_coeff 12 33 wf/cut 0.292724 6.6723319742793255 1 2 20.016995922837978
pair_coeff 12 34 wf/cut 0.237360 6.454265231889239 1 2 19.362795695667717
pair_coeff 12 35 wf/cut 0.121659 5.8431832590102974 1 2 17.529549777030894
pair_coeff 12 36 wf/cut 0.228826 6.308421039847022 1 2 18.925263119541064
pair_coeff 12 37 wf/cut 0.167940 6.10158175427316 1 2 18.30474526281948
pair_coeff 12 38 wf/cut 0.127717 6.041063379946771 1 2 18.123190139840315
pair_coeff 12 39 wf/cut 0.124412 5.999536872422517 1 2 17.998610617267552
pair_coeff 12 40 wf/cut 0.100421 6.367152767929573 1 2 19.101458303788718
pair_coeff 13 13 wf/cut 0.550297 7.066547961746265 1 2 21.199643885238793
pair_coeff 13 14 wf/cut 0.470970 6.84798437757724 1 2 20.54395313273172
pair_coeff 13 15 wf/cut 0.305948 6.234139720557474 1 2 18.702419161672424
pair_coeff 13 16 wf/cut 0.458857 6.702091518082294 1 2 20.10627455424688
pair_coeff 13 17 wf/cut 0.372073 6.494164476750084 1 2 19.48249343025025
pair_coeff 13 18 wf/cut 0.314487 6.432174788842087 1 2 19.29652436652626
pair_coeff 13 19 wf/cut 0.309804 6.390531854157171 1 2 19.171595562471513
pair_coeff 13 20 wf/cut 0.275346 6.756032732095156 1 2 20.268098196285468
pair_coeff 13 21 wf/cut 0.288877 6.755817014102551 1 2 20.267451042307652
pair_coeff 13 22 wf/cut 0.308830 5.879425000161095 1 2 17.638275000483283
pair_coeff 13 23 wf/cut 0.284207 6.8497445004881925 1 2 20.549233501464578
pair_coeff 13 24 wf/cut 0.285853 6.4638463520895115 1 2 19.391539056268535
pair_coeff 13 25 wf/cut 0.381424 6.952910842994874 1 2 20.85873252898462
pair_coeff 13 26 wf/cut 0.292454 6.1613130283141055 1 2 18.483939084942318
pair_coeff 13 27 wf/cut 0.312558 6.442631932062835 1 2 19.327895796188507
pair_coeff 13 28 wf/cut 0.315587 6.619890395721167 1 2 19.8596711871635
pair_coeff 13 29 wf/cut 0.421925 6.900441239237516 1 2 20.701323717712548
pair_coeff 13 30 wf/cut 0.277524 6.589134834507833 1 2 19.7674045035235
pair_coeff 13 31 wf/cut 0.279016 6.755970194682537 1 2 20.267910584047613
pair_coeff 13 32 wf/cut 0.345065 6.671688068448729 1 2 20.015064205346185
pair_coeff 13 33 wf/cut 0.467649 7.066966231238362 1 2 21.200898693715086
pair_coeff 13 34 wf/cut 0.412285 6.848368288265007 1 2 20.54510486479502
pair_coeff 13 35 wf/cut 0.296584 6.23425905911194 1 2 18.70277717733582
pair_coeff 13 36 wf/cut 0.403751 6.702459807412386 1 2 20.10737942223716
pair_coeff 13 37 wf/cut 0.342865 6.494438889291505 1 2 19.483316667874515
pair_coeff 13 38 wf/cut 0.302642 6.4323262444775215 1 2 19.296978733432564
pair_coeff 13 39 wf/cut 0.299337 6.3906653903753785 1 2 19.171996171126136
pair_coeff 13 40 wf/cut 0.275346 6.756032732095156 1 2 20.268098196285468
pair_coeff 14 14 wf/cut 0.391642 6.629549396410893 1 2 19.88864818923268
pair_coeff 14 15 wf/cut 0.226621 6.016400811210637 1 2 18.049202433631912
pair_coeff 14 16 wf/cut 0.379530 6.483674128071082 1 2 19.451022384213246
pair_coeff 14 17 wf/cut 0.292745 6.276026354822916 1 2 18.828079064468746
pair_coeff 14 18 wf/cut 0.235159 6.2144055979415755 1 2 18.643216793824728
pair_coeff 14 19 wf/cut 0.230476 6.172787382997035 1 2 18.518362148991105
pair_coeff 14 20 wf/cut 0.196018 6.538787910119839 1 2 19.616363730359517
pair_coeff 14 21 wf/cut 0.209550 6.538369107168012 1 2 19.615107321504034
pair_coeff 14 22 wf/cut 0.229503 5.661533193978743 1 2 16.98459958193623
pair_coeff 14 23 wf/cut 0.204879 6.632390006238709 1 2 19.89717001871613
pair_coeff 14 24 wf/cut 0.206526 6.246381672050424 1 2 18.73914501615127
pair_coeff 14 25 wf/cut 0.302096 6.734778137463742 1 2 20.204334412391226
pair_coeff 14 26 wf/cut 0.213126 5.94370434405314 1 2 17.831113032159422
pair_coeff 14 27 wf/cut 0.233231 6.2248725061501835 1 2 18.67461751845055
pair_coeff 14 28 wf/cut 0.236259 6.402145618033878 1 2 19.206436854101636
pair_coeff 14 29 wf/cut 0.342598 6.6821466956694 1 2 20.0464400870082
pair_coeff 14 30 wf/cut 0.198196 6.3718164337361864 1 2 19.11544930120856
pair_coeff 14 31 wf/cut 0.199688 6.538652708676239 1 2 19.61595812602872
pair_coeff 14 32 wf/cut 0.265737 6.453725824442914 1 2 19.361177473328745
pair_coeff 14 33 wf/cut 0.388321 6.848555261309869 1 2 20.545665783929607
pair_coeff 14 34 wf/cut 0.332957 6.630097176272377 1 2 19.89029152881713
pair_coeff 14 35 wf/cut 0.217256 6.0166118728379825 1 2 18.049835618513946
pair_coeff 14 36 wf/cut 0.324423 6.484210545760694 1 2 19.45263163728208
pair_coeff 14 37 wf/cut 0.263537 6.276464594313065 1 2 18.829393782939196
pair_coeff 14 38 wf/cut 0.223314 6.2146578822218475 1 2 18.643973646665543
pair_coeff 14 39 wf/cut 0.220009 6.173021960210248 1 2 18.51906588063074
pair_coeff 14 40 wf/cut 0.196018 6.538787910119839 1 2 19.616363730359517
pair_coeff 15 15 wf/cut 0.061600 5.412669704115792 1 2 16.238009112347374
pair_coeff 15 16 wf/cut 0.214509 5.870633388669294 1 2 17.61190016600788
pair_coeff 15 17 wf/cut 0.127724 5.665328065098679 1 2 16.99598419529604
pair_coeff 15 18 wf/cut 0.070138 5.60931576883087 1 2 16.82794730649261
pair_coeff 15 19 wf/cut 0.065455 5.568478936337624 1 2 16.705436809012873
pair_coeff 15 20 wf/cut 0.030997 5.95253426830798 1 2 17.857602804923943
pair_coeff 15 21 wf/cut 0.044529 5.941730116730399 1 2 17.8251903501912
pair_coeff 15 22 wf/cut 0.064482 5.055066526249052 1 2 15.165199578747156
pair_coeff 15 23 wf/cut 0.039858 6.0388189375203165 1 2 18.116456812560948
pair_coeff 15 24 wf/cut 0.041505 5.650569731939204 1 2 16.951709195817614
pair_coeff 15 25 wf/cut 0.137075 6.123955851741878 1 2 18.371867555225634
pair_coeff 15 26 wf/cut 0.048105 5.343933138992498 1 2 16.031799416977496
pair_coeff 15 27 wf/cut 0.068210 5.620115241697351 1 2 16.860345725092053
pair_coeff 15 28 wf/cut 0.071238 5.79714638380999 1 2 17.39143915142997
pair_coeff 15 29 wf/cut 0.177576 6.069943102760143 1 2 18.20982930828043
pair_coeff 15 30 wf/cut 0.033175 5.7826589372196375 1 2 17.347976811658913
pair_coeff 15 31 wf/cut 0.034667 5.948302390882524 1 2 17.84490717264757
pair_coeff 15 32 wf/cut 0.100716 5.845003436795657 1 2 17.53501031038697
pair_coeff 15 33 wf/cut 0.223300 6.235536027214636 1 2 18.706608081643907
pair_coeff 15 34 wf/cut 0.167936 6.018117533790267 1 2 18.054352601370802
pair_coeff 15 35 wf/cut 0.052235 5.415473890209146 1 2 16.246421670627438
pair_coeff 15 36 wf/cut 0.159402 5.872398100194439 1 2 17.617194300583318
pair_coeff 15 37 wf/cut 0.098516 5.667732143982081 1 2 17.003196431946243
pair_coeff 15 38 wf/cut 0.058293 5.612162941341123 1 2 16.83648882402337
pair_coeff 15 39 wf/cut 0.054988 5.571364187563539 1 2 16.714092562690617
pair_coeff 15 40 wf/cut 0.030997 5.95253426830798 1 2 17.857602804923943
pair_coeff 16 16 wf/cut 0.027216 6.337782403912046 1 2 19.01334721173614
pair_coeff 16 17 wf/cut 0.280633 6.130180422228775 1 2 18.390541266686323
pair_coeff 16 18 wf/cut 0.223047 6.068649252074198 1 2 18.205947756222592
pair_coeff 16 19 wf/cut 0.218364 6.027019005823624 1 2 18.081057017470872
pair_coeff 16 20 wf/cut 0.183906 6.393147480752069 1 2 19.179442442256207
pair_coeff 16 21 wf/cut 0.197438 6.392683938124808 1 2 19.178051814374424
pair_coeff 16 22 wf/cut 0.217391 5.515750877499212 1 2 16.547252632497635
pair_coeff 16 23 wf/cut 0.192767 6.486724075272986 1 2 19.46017222581896
pair_coeff 16 24 wf/cut 0.194414 6.100672500483568 1 2 18.302017501450702
pair_coeff 16 25 wf/cut 0.289984 6.588935233441612 1 2 19.766805700324838
pair_coeff 16 26 wf/cut 0.201014 5.79796325726322 1 2 17.39388977178966
pair_coeff 16 27 wf/cut 0.221118 6.0791010484529915 1 2 18.237303145358975
pair_coeff 16 28 wf/cut 0.224147 6.256376087421608 1 2 18.769128262264825
pair_coeff 16 29 wf/cut 0.330485 6.536274979404401 1 2 19.608824938213203
pair_coeff 16 30 wf/cut 0.186084 6.226140636452508 1 2 18.678421909357525
pair_coeff 16 31 wf/cut 0.187576 6.392997387325535 1 2 19.178992161976602
pair_coeff 16 32 wf/cut 0.253625 6.307912958718467 1 2 18.9237388761554
pair_coeff 16 33 wf/cut 0.376209 6.702684222295407 1 2 20.10805266688622
pair_coeff 16 34 wf/cut 0.320845 6.484248553549719 1 2 19.452745660649157
pair_coeff 16 35 wf/cut 0.205144 5.870864049052838 1 2 17.612592147158516
pair_coeff 16 36 wf/cut 0.023134 6.338345846056568 1 2 19.015037538169704
pair_coeff 16 37 wf/cut 0.251425 6.130649043241044 1 2 18.391947129723132
pair_coeff 16 38 wf/cut 0.211202 6.0689241564117395 1 2 18.20677246923522
pair_coeff 16 39 wf/cut 0.207897 6.027275074473145 1 2 18.081825223419436
pair_coeff 16 40 wf/cut 0.183906 6.393147480752069 1 2 19.179442442256207
pair_coeff 17 17 wf/cut 0.193849 5.9233491242788805 1 2 17.770047372836643
pair_coeff 17 18 wf/cut 0.136263 5.8630821184928195 1 2 17.58924635547846
pair_coeff 17 19 wf/cut 0.131580 5.821644218417775 1 2 17.464932655253325
pair_coeff 17 20 wf/cut 0.097122 6.1899864646586105 1 2 18.569959393975832
pair_coeff 17 21 wf/cut 0.110653 6.188546099325202 1 2 18.565638297975607
pair_coeff 17 22 wf/cut 0.130606 5.30983190747035 1 2 15.929495722411051
pair_coeff 17 23 wf/cut 0.105983 6.282921319282791 1 2 18.848763957848373
pair_coeff 17 24 wf/cut 0.107629 5.896489952968157 1 2 17.68946985890447
pair_coeff 17 25 wf/cut 0.203200 6.382089400238762 1 2 19.146268200716285
pair_coeff 17 26 wf/cut 0.114230 5.59320394576633 1 2 16.77961183729899
pair_coeff 17 27 wf/cut 0.134334 5.873649240456693 1 2 17.62094772137008
pair_coeff 17 28 wf/cut 0.137363 6.050910374214647 1 2 18.152731122643942
pair_coeff 17 29 wf/cut 0.243701 6.328963417719822 1 2 18.986890253159466
pair_coeff 17 30 wf/cut 0.099300 6.022666584916778 1 2 18.067999754750335
pair_coeff 17 31 wf/cut 0.100792 6.189544117007458 1 2 18.568632351022373
pair_coeff 17 32 wf/cut 0.166841 6.101625831837799 1 2 18.304877495513395
pair_coeff 17 33 wf/cut 0.289424 6.495083547619462 1 2 19.485250642858386
pair_coeff 17 34 wf/cut 0.234061 6.277022750655092 1 2 18.831068251965277
pair_coeff 17 35 wf/cut 0.118359 5.665971807159278 1 2 16.997915421477835
pair_coeff 17 36 wf/cut 0.225527 6.131165252735328 1 2 18.393495758205983
pair_coeff 17 37 wf/cut 0.164641 5.924348407080925 1 2 17.773045221242775
pair_coeff 17 38 wf/cut 0.124417 5.863848431499796 1 2 17.591545294499387
pair_coeff 17 39 wf/cut 0.121113 5.822344488616284 1 2 17.46703346584885
pair_coeff 17 40 wf/cut 0.097122 6.1899864646586105 1 2 18.569959393975832
pair_coeff 18 18 wf/cut 0.078677 5.806155150598376 1 2 17.41846545179513
pair_coeff 18 19 wf/cut 0.073994 5.765149033334852 1 2 17.29544710000456
pair_coeff 18 20 wf/cut 0.039536 6.143860896897243 1 2 18.431582690691727
pair_coeff 18 21 wf/cut 0.053067 6.136530836242518 1 2 18.409592508727556
pair_coeff 18 22 wf/cut 0.073020 5.2521394224496145 1 2 15.756418267348844
pair_coeff 18 23 wf/cut 0.048396 6.232722071931244 1 2 18.698166215793734
pair_coeff 18 24 wf/cut 0.050043 5.845049472828402 1 2 17.535148418485207
pair_coeff 18 25 wf/cut 0.145613 6.3217567788528175 1 2 18.965270336558454
pair_coeff 18 26 wf/cut 0.056644 5.539473279208256 1 2 16.618419837624767
pair_coeff 18 27 wf/cut 0.076748 5.816985496228361 1 2 17.450956488685083
pair_coeff 18 28 wf/cut 0.079776 5.993977654615634 1 2 17.9819329638469
pair_coeff 18 29 wf/cut 0.186115 6.267859616819192 1 2 18.803578850457576
pair_coeff 18 30 wf/cut 0.041714 5.974983307333975 1 2 17.924949922001925
pair_coeff 18 31 wf/cut 0.043205 6.1411099770057245 1 2 18.42332993101717
pair_coeff 18 32 wf/cut 0.109254 6.042493928204347 1 2 18.12748178461304
pair_coeff 18 33 wf/cut 0.231838 6.433519247230287 1 2 19.300557741690863
pair_coeff 18 34 wf/cut 0.176474 6.216033392034327 1 2 18.648100176102982
pair_coeff 18 35 wf/cut 0.060773 5.611389850569513 1 2 16.834169551708538
pair_coeff 18 36 wf/cut 0.167940 6.070294170144763 1 2 18.21088251043429
pair_coeff 18 37 wf/cut 0.107055 5.865217375098184 1 2 17.595652125294553
pair_coeff 18 38 wf/cut 0.066831 5.808437279092397 1 2 17.425311837277192
pair_coeff 18 39 wf/cut 0.063527 5.767428643819603 1 2 17.302285931458808
pair_coeff 18 40 wf/cut 0.039536 6.143860896897243 1 2 18.431582690691727
pair_coeff 19 19 wf/cut 0.069311 5.724362787504792 1 2 17.173088362514378
pair_coeff 19 20 wf/cut 0.034853 6.10586575299424 1 2 18.31759725898272
pair_coeff 19 21 wf/cut 0.048384 6.0967512192398505 1 2 18.290253657719553
pair_coeff 19 22 wf/cut 0.068337 5.211108138159037 1 2 15.633324414477112
pair_coeff 19 23 wf/cut 0.043714 6.1934329156331 1 2 18.5802987468993
pair_coeff 19 24 wf/cut 0.045360 5.805442925019495 1 2 17.416328775058485
pair_coeff 19 25 wf/cut 0.140930 6.280274061428144 1 2 18.84082218428443
pair_coeff 19 26 wf/cut 0.051961 5.499319146540279 1 2 16.497957439620837
pair_coeff 19 27 wf/cut 0.072065 5.776024303801226 1 2 17.328072911403677
pair_coeff 19 28 wf/cut 0.075093 5.953096206763187 1 2 17.85928862028956
pair_coeff 19 29 wf/cut 0.181432 6.226290621468162 1 2 18.678871864404485
pair_coeff 19 30 wf/cut 0.037031 5.936496588820257 1 2 17.80948976646077
pair_coeff 19 31 wf/cut 0.038522 6.10236911417194 1 2 18.30710734251582
pair_coeff 19 32 wf/cut 0.104571 6.001202451726246 1 2 18.003607355178737
pair_coeff 19 33 wf/cut 0.227155 6.391918936768799 1 2 19.175756810306396
pair_coeff 19 34 wf/cut 0.171791 6.174477574070478 1 2 18.52343272221143
pair_coeff 19 35 wf/cut 0.056090 5.571011278043507 1 2 16.71303383413052
pair_coeff 19 36 wf/cut 0.163258 6.028753613252821 1 2 18.086260839758463
pair_coeff 19 37 wf/cut 0.102372 5.823949131867462 1 2 17.471847395602385
pair_coeff 19 38 wf/cut 0.062148 5.767856883865312 1 2 17.303570651595933
pair_coeff 19 39 wf/cut 0.058844 5.726983480603789 1 2 17.18095044181137
pair_coeff 19 40 wf/cut 0.034853 6.10586575299424 1 2 18.31759725898272
pair_coeff 20 21 wf/cut 0.013926 6.5199210046589675 1 2 19.5597630139769
pair_coeff 20 22 wf/cut 0.033879 5.587459907599181 1 2 16.76237972279754
pair_coeff 20 23 wf/cut 0.009256 6.649574443493311 1 2 19.948723330479933
pair_coeff 20 24 wf/cut 0.010902 6.242374503621665 1 2 18.727123510864995
pair_coeff 20 25 wf/cut 0.106472 6.648355967009086 1 2 19.945067901027258
pair_coeff 20 26 wf/cut 0.017503 5.903567074401621 1 2 17.71070122320486
pair_coeff 20 27 wf/cut 0.037607 6.155943831058615 1 2 18.467831493175847
pair_coeff 20 28 wf/cut 0.040635 6.331503643570952 1 2 18.994510930712856
pair_coeff 20 29 wf/cut 0.146974 6.593018960515583 1 2 19.77905688154675
pair_coeff 20 32 wf/cut 0.070113 6.372029116976672 1 2 19.116087350930016
pair_coeff 20 33 wf/cut 0.192697 6.757970683221281 1 2 20.273912049663842
pair_coeff 20 34 wf/cut 0.137333 6.5414250271565235 1 2 19.62427508146957
pair_coeff 20 35 wf/cut 0.021632 5.967018638311549 1 2 17.901055914934645
pair_coeff 20 36 wf/cut 0.128800 6.395882535691026 1 2 19.187647607073078
pair_coeff 20 37 wf/cut 0.067914 6.194931490620908 1 2 18.584794471862722
pair_coeff 20 38 wf/cut 0.027690 6.155796177211015 1 2 18.467388531633045
pair_coeff 20 39 wf/cut 0.024386 6.119051758363574 1 2 18.357155275090722
pair_coeff 21 21 wf/cut 0.027458 6.480069420606985 1 2 19.440208261820956
pair_coeff 21 22 wf/cut 0.047411 5.581642130693901 1 2 16.7449263920817
pair_coeff 21 23 wf/cut 0.022787 6.583002517343036 1 2 19.74900755202911
pair_coeff 21 24 wf/cut 0.024433 6.191552500203247 1 2 18.574657500609742
pair_coeff 21 25 wf/cut 0.120004 6.646999738911693 1 2 19.94099921673508
pair_coeff 21 26 wf/cut 0.031034 5.878598106878971 1 2 17.63579432063691
pair_coeff 21 27 wf/cut 0.051138 6.1478586796466335 1 2 18.443576038939902
pair_coeff 21 28 wf/cut 0.054167 6.324516380690015 1 2 18.973549142070045
pair_coeff 21 29 wf/cut 0.160505 6.592313711480712 1 2 19.776941134442136
pair_coeff 21 30 wf/cut 0.016104 6.340969704607503 1 2 19.02290911382251
pair_coeff 21 31 wf/cut 0.017596 6.5013402123206046 1 2 19.504020636961812
pair_coeff 21 32 wf/cut 0.083645 6.369348945541728 1 2 19.108046836625185
pair_coeff 21 33 wf/cut 0.206229 6.757540572332879 1 2 20.27262171699864
pair_coeff 21 34 wf/cut 0.150865 6.540596793679068 1 2 19.621790381037204
pair_coeff 21 35 wf/cut 0.035164 5.947844531230358 1 2 17.843533593691074
pair_coeff 21 36 wf/cut 0.142331 6.39500222582037 1 2 19.18500667746111
pair_coeff 21 37 wf/cut 0.081445 6.192166186380409 1 2 18.57649855914123
pair_coeff 21 38 wf/cut 0.041222 6.142414836822247 1 2 18.42724451046674
pair_coeff 21 39 wf/cut 0.037917 6.102763659737872 1 2 18.308290979213616
pair_coeff 21 40 wf/cut 0.013926 6.5199210046589675 1 2 19.5597630139769
pair_coeff 22 22 wf/cut 0.067364 4.698227190160832 1 2 14.094681570482496
pair_coeff 22 23 wf/cut 0.042740 5.6772849911904 1 2 17.0318549735712
pair_coeff 22 24 wf/cut 0.044387 5.289807269665101 1 2 15.869421808995302
pair_coeff 22 25 wf/cut 0.139957 5.768554114508845 1 2 17.305662343526535
pair_coeff 22 26 wf/cut 0.050987 4.984686027270456 1 2 14.954058081811368
pair_coeff 22 27 wf/cut 0.071091 5.262912382415455 1 2 15.788737147246366
pair_coeff 22 28 wf/cut 0.074120 5.439975772862831 1 2 16.319927318588494
pair_coeff 22 29 wf/cut 0.180458 5.714850862757114 1 2 17.144552588271342
pair_coeff 22 30 wf/cut 0.036057 5.418902704026212 1 2 16.256708112078634
pair_coeff 22 31 wf/cut 0.037549 5.585489758070483 1 2 16.756469274211447
pair_coeff 22 32 wf/cut 0.103598 5.489037080971375 1 2 16.467111242914125
pair_coeff 22 33 wf/cut 0.226182 5.8806376350894025 1 2 17.641912905268207
pair_coeff 22 34 wf/cut 0.170818 5.662987686021554 1 2 16.988963058064662
pair_coeff 22 35 wf/cut 0.055117 5.056931123036382 1 2 15.170793369109145
pair_coeff 22 36 wf/cut 0.162284 5.517215784587296 1 2 16.551647353761886
pair_coeff 22 37 wf/cut 0.101398 5.311696859115723 1 2 15.935090577347168
pair_coeff 22 38 wf/cut 0.061175 5.254183030641423 1 2 15.762549091924269
pair_coeff 22 39 wf/cut 0.057870 5.213062357159386 1 2 15.639187071478158
pair_coeff 22 40 wf/cut 0.033879 5.587459907599181 1 2 16.76237972279754
pair_coeff 23 23 wf/cut 0.013420 6.688853536606121 1 2 20.066560609818364
pair_coeff 23 24 wf/cut 0.019763 6.29527868599085 1 2 18.885836057972547
pair_coeff 23 25 wf/cut 0.085206 6.741392723436803 1 2 20.22417817031041
pair_coeff 23 26 wf/cut 0.026364 5.978305270632397 1 2 17.93491581189719
pair_coeff 23 27 wf/cut 0.000342 6.244253298502354 1 2 18.732759895507062
pair_coeff 23 28 wf/cut 0.000366 6.4204818546224995 1 2 19.261445563867497
pair_coeff 23 29 wf/cut 0.071890 6.686432938070228 1 2 20.059298814210685
pair_coeff 23 30 wf/cut 0.011434 6.460111302128625 1 2 19.380333906385875
pair_coeff 23 31 wf/cut 0.012925 6.617996254538358 1 2 19.853988763615074
pair_coeff 23 32 wf/cut 0.078974 6.4641118645001 1 2 19.3923355935003
pair_coeff 23 33 wf/cut 0.073358 6.85155566549562 1 2 20.55466699648686
pair_coeff 23 34 wf/cut 0.080693 6.634779187210656 1 2 19.90433756163197
pair_coeff 23 35 wf/cut 0.030493 6.046847416569171 1 2 18.14054224970751
pair_coeff 23 36 wf/cut 0.061166 6.489185414364156 1 2 19.467556243092467
pair_coeff 23 37 wf/cut 0.076775 6.2869559403051 1 2 18.860867820915303
pair_coeff 23 38 wf/cut 0.036551 6.240136548485556 1 2 18.72040964545667
pair_coeff 23 39 wf/cut 0.033247 6.2011686854634664 1 2 18.6035060563904
pair_coeff 23 40 wf/cut 0.009256 6.649574443493311 1 2 19.948723330479933
pair_coeff 24 24 wf/cut 0.021409 5.902825373061459 1 2 17.708476119184375
pair_coeff 24 25 wf/cut 0.116980 6.355020618222843 1 2 19.065061854668528
pair_coeff 24 26 wf/cut 0.028010 5.588184701124206 1 2 16.764554103372618
pair_coeff 24 27 wf/cut 0.048114 5.856453272809193 1 2 17.56935981842758
pair_coeff 24 28 wf/cut 0.051143 6.03282984385001 1 2 18.09848953155003
pair_coeff 24 29 wf/cut 0.157481 6.300272873273843 1 2 18.90081861982153
pair_coeff 24 30 wf/cut 0.013080 6.05885560137348 1 2 18.17656680412044
pair_coeff 24 31 wf/cut 0.014572 6.219293562690735 1 2 18.657880688072204
pair_coeff 24 32 wf/cut 0.080621 6.077365593674358 1 2 18.232096781023074
pair_coeff 24 33 wf/cut 0.203205 6.465539023765016 1 2 19.396617071295047
pair_coeff 24 34 wf/cut 0.147841 6.248599086448351 1 2 18.745797259345053
pair_coeff 24 35 wf/cut 0.032140 5.6574738585901345 1 2 16.972421575770404
pair_coeff 24 36 wf/cut 0.139307 6.102951668547555 1 2 18.308855005642666
pair_coeff 24 37 wf/cut 0.078421 5.900160965208208 1 2 17.700482895624624
pair_coeff 24 38 wf/cut 0.038198 5.85153222065546 1 2 17.55459666196638
pair_coeff 24 39 wf/cut 0.034893 5.812153931855011 1 2 17.436461795565034
pair_coeff 24 40 wf/cut 0.010902 6.242374503621665 1 2 18.727123510864995
pair_coeff 25 25 wf/cut 0.062978 6.840818860381698 1 2 20.522456581145093
pair_coeff 25 26 wf/cut 0.123581 6.051811079871612 1 2 18.155433239614837
pair_coeff 25 27 wf/cut 0.001064 6.332285213812248 1 2 18.996855641436742
pair_coeff 25 28 wf/cut 0.001085 6.509542326637676 1 2 19.528626979913028
pair_coeff 25 29 wf/cut 0.425474 6.7877218996841355 1 2 20.363165699052406
pair_coeff 25 30 wf/cut 0.108651 6.481102402445426 1 2 19.44330720733628
pair_coeff 25 31 wf/cut 0.110142 6.647901648052044 1 2 19.94370494415613
pair_coeff 25 32 wf/cut 0.176191 6.560327886240045 1 2 19.680983658720134
pair_coeff 25 33 wf/cut 0.484160 6.953839371357665 1 2 20.861518114072993
pair_coeff 25 34 wf/cut 0.381459 6.735769622233203 1 2 20.20730886669961
pair_coeff 25 35 wf/cut 0.127710 6.1245540687340725 1 2 18.37366220620222
pair_coeff 25 36 wf/cut 0.086889 6.589926019306955 1 2 19.769778057920867
pair_coeff 25 37 wf/cut 0.173991 6.38305646617526 1 2 19.14916939852578
pair_coeff 25 38 wf/cut 0.133768 6.322442926130092 1 2 18.967328778390275
pair_coeff 25 39 wf/cut 0.130463 6.280926022691235 1 2 18.842778068073706
pair_coeff 25 40 wf/cut 0.106472 6.648355967009086 1 2 19.945067901027258
pair_coeff 26 26 wf/cut 0.034611 5.278051554722805 1 2 15.834154664168416
pair_coeff 26 27 wf/cut 0.054715 5.550632394717641 1 2 16.651897184152922
pair_coeff 26 28 wf/cut 0.057743 5.727313013729271 1 2 17.18193904118781
pair_coeff 26 29 wf/cut 0.164082 5.997401234701861 1 2 17.99220370410558
pair_coeff 26 30 wf/cut 0.019681 5.729200436106479 1 2 17.187601308319437
pair_coeff 26 31 wf/cut 0.021172 5.893502125092778 1 2 17.680506375278334
pair_coeff 26 32 wf/cut 0.087222 5.77355467816977 1 2 17.32066403450931
pair_coeff 26 33 wf/cut 0.209805 6.162846524069043 1 2 18.48853957220713
pair_coeff 26 34 wf/cut 0.154442 5.945670315140756 1 2 17.837010945422268
pair_coeff 26 35 wf/cut 0.038740 5.3486854588231765 1 2 16.04605637646953
pair_coeff 26 36 wf/cut 0.145908 5.799973083941243 1 2 17.39991925182373
pair_coeff 26 37 wf/cut 0.085022 5.596251927245512 1 2 16.788755781736537
pair_coeff 26 38 wf/cut 0.044798 5.544164768287125 1 2 16.632494304861375
pair_coeff 26 39 wf/cut 0.041494 5.504054682438701 1 2 16.512164047316105
pair_coeff 26 40 wf/cut 0.017503 5.903567074401621 1 2 17.71070122320486
pair_coeff 27 27 wf/cut 0.055422 5.8277356350076115 1 2 17.483206905022833
pair_coeff 27 28 wf/cut 0.057461 6.0048083393750415 1 2 18.014425018125124
pair_coeff 27 29 wf/cut 0.184186 6.278368151196274 1 2 18.83510445358882
pair_coeff 27 30 wf/cut 0.039785 5.986861716352022 1 2 17.960585149056065
pair_coeff 27 31 wf/cut 0.041277 6.152881477214971 1 2 18.458644431644913
pair_coeff 27 32 wf/cut 0.107326 6.053140955180234 1 2 18.159422865540705
pair_coeff 27 33 wf/cut 0.229910 6.444000765960297 1 2 19.33200229788089
pair_coeff 27 34 wf/cut 0.174546 6.226529663564308 1 2 18.679588990692924
pair_coeff 27 35 wf/cut 0.058845 5.622457081906772 1 2 16.867371245720314
pair_coeff 27 36 wf/cut 0.001228 6.080799532766481 1 2 18.242398598299445
pair_coeff 27 37 wf/cut 0.105126 5.875867449320084 1 2 17.627602347960252
pair_coeff 27 38 wf/cut 0.064903 5.819413545043322 1 2 17.458240635129968
pair_coeff 27 39 wf/cut 0.061598 5.778457730344957 1 2 17.335373191034872
pair_coeff 27 40 wf/cut 0.037607 6.155943831058615 1 2 18.467831493175847
pair_coeff 28 28 wf/cut 0.059908 6.1818125994432265 1 2 18.54543779832968
pair_coeff 28 29 wf/cut 0.187215 6.4556028384801145 1 2 19.366808515440344
pair_coeff 28 30 wf/cut 0.042814 6.162677260323304 1 2 18.488031780969912
pair_coeff 28 31 wf/cut 0.044305 6.329122536684595 1 2 18.987367610053788
pair_coeff 28 32 wf/cut 0.110354 6.230341958421634 1 2 18.691025875264902
pair_coeff 28 33 wf/cut 0.232938 6.621259842822526 1 2 19.863779528467578
pair_coeff 28 34 wf/cut 0.177574 6.403800703379438 1 2 19.211402110138312
pair_coeff 28 35 wf/cut 0.061873 5.7993639894571976 1 2 17.39809196837159
pair_coeff 28 36 wf/cut 0.001252 6.258048801889918 1 2 18.774146405669754
pair_coeff 28 37 wf/cut 0.108154 6.053088642675554 1 2 18.159265928026663
pair_coeff 28 38 wf/cut 0.067931 5.9963870692049515 1 2 17.989161207614856
pair_coeff 28 39 wf/cut 0.064626 5.955407688864699 1 2 17.866223066594095
pair_coeff 28 40 wf/cut 0.040635 6.331503643570952 1 2 18.994510930712856
pair_coeff 29 29 wf/cut 0.293553 6.734901221669089 1 2 20.204703665007266
pair_coeff 29 30 wf/cut 0.149152 6.425928662140226 1 2 19.277785986420678
pair_coeff 29 31 wf/cut 0.150644 6.592808608254519 1 2 19.77842582476356
pair_coeff 29 32 wf/cut 0.216693 6.5069139355650485 1 2 19.520741806695145
pair_coeff 29 33 wf/cut 0.339277 6.901174934210456 1 2 20.703524802631367
pair_coeff 29 34 wf/cut 0.283913 6.682893550119813 1 2 20.048680650359437
pair_coeff 29 35 wf/cut 0.168212 6.070294170144763 1 2 18.21088251043429
pair_coeff 29 36 wf/cut 0.275379 6.53700493974828 1 2 19.61101481924484
pair_coeff 29 37 wf/cut 0.214493 6.329613164394258 1 2 18.988839493182773
pair_coeff 29 38 wf/cut 0.174270 6.268290266697097 1 2 18.80487080009129
pair_coeff 29 39 wf/cut 0.170965 6.226677571408917 1 2 18.68003271422675
pair_coeff 29 40 wf/cut 0.146974 6.593018960515583 1 2 19.77905688154675
pair_coeff 30 31 wf/cut 0.006243 6.436867325811939 1 2 19.310601977435816
pair_coeff 30 32 wf/cut 0.072292 6.2043654791136875 1 2 18.613096437341063
pair_coeff 30 33 wf/cut 0.194875 6.590992227279316 1 2 19.77297668183795
pair_coeff 30 34 wf/cut 0.139512 6.374322689731052 1 2 19.122968069193156
pair_coeff 30 35 wf/cut 0.023810 5.794680761693587 1 2 17.38404228508076
pair_coeff 30 36 wf/cut 0.130978 6.228734363673756 1 2 18.68620309102127
pair_coeff 30 37 wf/cut 0.070092 6.027237821338098 1 2 18.081713464014296
pair_coeff 30 38 wf/cut 0.029868 5.985230649978958 1 2 17.955691949936874
pair_coeff 30 39 wf/cut 0.026564 5.947631895281645 1 2 17.842895685844933
pair_coeff 31 31 wf/cut 0.007734 6.567831037515117 1 2 19.703493112545353
pair_coeff 31 32 wf/cut 0.073783 6.371180012524027 1 2 19.11354003757208
pair_coeff 31 33 wf/cut 0.196367 6.757844212311977 1 2 20.273532636935933
pair_coeff 31 34 wf/cut 0.141003 6.541152469250684 1 2 19.623457407752053
pair_coeff 31 35 wf/cut 0.025302 5.958948966149641 1 2 17.87684689844892
pair_coeff 31 36 wf/cut 0.132469 6.395617784448214 1 2 19.18685335334464
pair_coeff 31 37 wf/cut 0.071583 6.194052355515639 1 2 18.58215706654692
pair_coeff 31 38 wf/cut 0.031360 6.150442231391871 1 2 18.451326694175613
pair_coeff 31 39 wf/cut 0.028055 6.1123674095484715 1 2 18.337102228645414
pair_coeff 32 32 wf/cut 0.139832 6.280338147956703 1 2 18.841014443870108
pair_coeff 32 33 wf/cut 0.262416 6.672807379130834 1 2 20.018422137392502
pair_coeff 32 34 wf/cut 0.207052 6.454996866244807 1 2 19.364990598734423
pair_coeff 32 35 wf/cut 0.091351 5.846082838683163 1 2 17.53824851604949
pair_coeff 32 36 wf/cut 0.198518 6.309181376440496 1 2 18.92754412932149
pair_coeff 32 37 wf/cut 0.137633 6.103047888395006 1 2 18.30914366518502
pair_coeff 32 38 wf/cut 0.097409 6.043739153604026 1 2 18.131217460812078
pair_coeff 32 39 wf/cut 0.094104 6.002359484884067 1 2 18.007078454652202
pair_coeff 32 40 wf/cut 0.070113 6.372029116976672 1 2 19.116087350930016
pair_coeff 33 33 wf/cut 0.385000 7.067563273437359 1 2 21.202689820312077
pair_coeff 33 34 wf/cut 0.329636 6.849136659067028 1 2 20.547409977201085
pair_coeff 33 35 wf/cut 0.213935 6.235761878631987 1 2 18.70728563589596
pair_coeff 33 36 wf/cut 0.321102 6.703247958074066 1 2 20.109743874222197
pair_coeff 33 37 wf/cut 0.260216 6.49554680247315 1 2 19.48664040741945
pair_coeff 33 38 wf/cut 0.219993 6.433800819712532 1 2 19.3014024591376
pair_coeff 33 39 wf/cut 0.216688 6.3921696304391835 1 2 19.17650889131755
pair_coeff 33 40 wf/cut 0.192697 6.757970683221281 1 2 20.273912049663842
pair_coeff 34 34 wf/cut 0.274272 6.630885251270346 1 2 19.892655753811038
pair_coeff 34 35 wf/cut 0.158571 6.018506537122348 1 2 18.055519611367043
pair_coeff 34 36 wf/cut 0.265738 6.485029527646095 1 2 19.455088582938284
pair_coeff 34 37 wf/cut 0.204852 6.27772691468288 1 2 18.83318074404864
pair_coeff 34 38 wf/cut 0.164629 6.216488307385695 1 2 18.649464922157083
pair_coeff 34 39 wf/cut 0.161324 6.17490549231641 1 2 18.52471647694923
pair_coeff 34 40 wf/cut 0.137333 6.5414250271565235 1 2 19.62427508146957
pair_coeff 35 35 wf/cut 0.042870 5.4194558891562785 1 2 16.258367667468836
pair_coeff 35 36 wf/cut 0.150037 5.8728226163551005 1 2 17.6184678490653
pair_coeff 35 37 wf/cut 0.089151 5.6688305293155095 1 2 17.006491587946527
pair_coeff 35 38 wf/cut 0.048928 5.615420402551611 1 2 16.846261207654834
pair_coeff 35 39 wf/cut 0.045623 5.575027083025114 1 2 16.725081249075345
pair_coeff 35 40 wf/cut 0.021632 5.967018638311549 1 2 17.901055914934645
pair_coeff 36 36 wf/cut 0.019052 6.339149093005715 1 2 19.017447279017144
pair_coeff 36 37 wf/cut 0.196319 6.131909094415353 1 2 18.39572728324606
pair_coeff 36 38 wf/cut 0.156095 6.07081046198845 1 2 18.21243138596535
pair_coeff 36 39 wf/cut 0.152791 6.029219810679759 1 2 18.087659432039278
pair_coeff 36 40 wf/cut 0.128800 6.395882535691026 1 2 19.187647607073078
pair_coeff 37 37 wf/cut 0.135433 5.925773208988131 1 2 17.777319626964392
pair_coeff 37 38 wf/cut 0.095209 5.866481553533799 1 2 17.599444660601396
pair_coeff 37 39 wf/cut 0.091905 5.82512551794993 1 2 17.47537655384979
pair_coeff 37 40 wf/cut 0.067914 6.194931490620908 1 2 18.584794471862722
pair_coeff 38 38 wf/cut 0.054986 5.811826808320624 1 2 17.43548042496187
pair_coeff 38 39 wf/cut 0.051681 5.771184604473262 1 2 17.313553813419787
pair_coeff 38 40 wf/cut 0.027690 6.155796177211015 1 2 18.467388531633045
pair_coeff 39 39 wf/cut 0.048377 5.730699270006254 1 2 17.192097810018762
pair_coeff 39 40 wf/cut 0.024386 6.119051758363574 1 2 18.357155275090722
pair_coeff 40 40 wf/cut 0.000395 6.921680089176746 1 11 20.76504026753024
pair_coeff 20 40 wf/cut 0.000395 6.921680089176746 1 11 20.76504026753024
pair_coeff 20 20 wf/cut 0.000395 6.921680089176746 1 11 20.76504026753024
pair_coeff 10 20 wf/cut 0.002986 6.718011650959061 1 4 20.154034952877183
pair_coeff 10 40 wf/cut 0.002986 6.718011650959061 1 4 20.154034952877183
pair_coeff 20 30 wf/cut 0.002573 6.745752996427961 1 4 20.237258989283884
pair_coeff 20 31 wf/cut 0.004064 6.883184689300606 1 4 20.649554067901818
pair_coeff 30 40 wf/cut 0.002573 6.745752996427961 1 4 20.237258989283884
pair_coeff 31 40 wf/cut 0.004064 6.883184689300606 1 4 20.649554067901818
pair_coeff 3 3 coul/debye 35.
pair_coeff 3 5 coul/debye 35.
pair_coeff 3 7 coul/debye 35.
pair_coeff 3 8 coul/debye 35.
pair_coeff 3 16 coul/debye 35.
pair_coeff 3 23 coul/debye 35.
pair_coeff 3 25 coul/debye 35.
pair_coeff 3 36 coul/debye 35.
pair_coeff 5 5 coul/debye 35.
pair_coeff 5 7 coul/debye 35.
pair_coeff 5 8 coul/debye 35.
pair_coeff 5 16 coul/debye 35.
pair_coeff 5 23 coul/debye 35.
pair_coeff 5 25 coul/debye 35.
pair_coeff 5 27 coul/debye 35.
pair_coeff 5 28 coul/debye 35.
pair_coeff 5 36 coul/debye 35.
pair_coeff 7 7 coul/debye 35.
pair_coeff 7 8 coul/debye 35.
pair_coeff 7 16 coul/debye 35.
pair_coeff 7 23 coul/debye 35.
pair_coeff 7 25 coul/debye 35.
pair_coeff 7 27 coul/debye 35.
pair_coeff 7 28 coul/debye 35.
pair_coeff 7 36 coul/debye 35.
pair_coeff 8 8 coul/debye 35.
pair_coeff 8 16 coul/debye 35.
pair_coeff 8 23 coul/debye 35.
pair_coeff 8 25 coul/debye 35.
pair_coeff 8 27 coul/debye 35.
pair_coeff 8 28 coul/debye 35.
pair_coeff 8 36 coul/debye 35.
pair_coeff 16 16 coul/debye 35.
pair_coeff 16 23 coul/debye 35.
pair_coeff 16 25 coul/debye 35.
pair_coeff 16 27 coul/debye 35.
pair_coeff 16 28 coul/debye 35.
pair_coeff 16 36 coul/debye 35.
pair_coeff 23 23 coul/debye 35.
pair_coeff 23 25 coul/debye 35.
pair_coeff 23 36 coul/debye 35.
pair_coeff 25 25 coul/debye 35.
pair_coeff 25 27 coul/debye 35.
pair_coeff 25 28 coul/debye 35.
pair_coeff 25 36 coul/debye 35.
pair_coeff 27 27 coul/debye 35.
pair_coeff 27 28 coul/debye 35.
pair_coeff 27 36 coul/debye 35.
pair_coeff 28 28 coul/debye 35.
pair_coeff 28 36 coul/debye 35.
pair_coeff 36 36 coul/debye 35.
pair_coeff 3 27 coul/debye 35.
pair_coeff 3 28 coul/debye 35.
pair_coeff 23 27 coul/debye 35.
pair_coeff 23 28 coul/debye 35.

special_bonds fene
Finding 1-2 1-3 1-4 neighbors ...
  special bond factors lj:    0        1        1       
  special bond factors coul:  0        1        1       
     2 = max # of 1-2 neighbors
     6 = max # of special neighbors
  special bonds CPU = 0.000 seconds
neighbor  3.5 multi
neigh_modify  every 10 delay 0

comm_style    tiled

timer timeout 35:50:00
New timer settings: style=normal  mode=nosync  timeout=11:50:00

velocity      all create $T 494211
velocity      all create 350 494211
fix           fxnve   all nve
fix           fxlange all langevin $T $T 40000.0 32784
fix           fxlange all langevin 350 $T 40000.0 32784
fix           fxlange all langevin 350 350 40000.0 32784

dump          1 all custom 100000 $d-$T.xyz id mol type q xu yu zu
dump          1 all custom 100000 TIA_WT-$T.xyz id mol type q xu yu zu
dump          1 all custom 100000 TIA_WT-350.xyz id mol type q xu yu zu
dump_modify   1 sort id

#compute       rad all gyration
#compute       dis all pair/local dist
#compute       maximo all reduce max c_dis
#compute       mean all reduce ave c_dis

thermo        1000000
thermo_style  custom step pe temp  press ke lx ly lz pzz  spcpu density
thermo_modify flush yes

restart      10000000 restart$T
restart      10000000 restart350

####Minimization

timestep 0.01
run 2000

CITE-CITE-CITE-CITE-CITE-CITE-CITE-CITE-CITE-CITE-CITE-CITE-CITE

Your simulation uses code contributions which should be cited:

- neighbor multi command:

@Article{Intveld08,
 author =  {P.{\,}J.~in{\,}'t~Veld and S.{\,}J.~Plimpton and G.{\,}S.~Grest},
 title =   {Accurate and Efficient Methods for Modeling Colloidal
            Mixtures in an Explicit Solvent using Molecular Dynamics},
 journal = {Comp.~Phys.~Comm.},
 year =    2008,
 volume =  179,
 pages =   {320--329}
}

CITE-CITE-CITE-CITE-CITE-CITE-CITE-CITE-CITE-CITE-CITE-CITE-CITE

Neighbor list info ...
  update every 10 steps, delay 0 steps, check yes
  max neighbors/atom: 2000, page size: 100000
  master list distance cutoff = 38.5
  ghost atom cutoff = 38.5
  binsize = 8.7926654, bins = 35 35 35
  2 neighbor lists, perpetual/occasional/extra = 2 0 0
  (1) pair wf/cut, perpetual
      attributes: half, newton on
      pair build: half/multi/newton
      stencil: half/multi/3d/newton
      bin: standard
  (2) pair coul/debye, perpetual, skip from (1)
      attributes: half, newton on
      pair build: skip
      stencil: none
      bin: none
Per MPI rank memory allocation (min/avg/max) = 8.891 | 8.953 | 9.133 Mbytes
Step PotEng Temp Press KinEng Lx Ly Lz Pzz S/CPU Density 
       0   -13.356653          350   0.42813671    100.15522          300          300          300   0.30852486            0 0.00066940445 
    2000   -11.289142    342.88243   0.40860596    98.118469          300          300          300   0.30724315    42408.044 0.00066940445 
Loop time of 0.0471911 on 6 procs for 2000 steps with 97 atoms

Performance: 36.617 ns/day, 0.655 hours/ns, 42380.905 timesteps/s
97.7% CPU use with 6 MPI tasks x no OpenMP threads

MPI task timing breakdown:
Section |  min time  |  avg time  |  max time  |%varavg| %total
---------------------------------------------------------------
Pair    | 0.00051665 | 0.0033607  | 0.016907   |  10.5 |  7.12
Bond    | 7.8678e-05 | 0.00044203 | 0.002147   |   0.0 |  0.94
Neigh   | 0          | 0          | 0          |   0.0 |  0.00
Comm    | 0.016742   | 0.038272   | 0.043381   |   4.9 | 81.10
Output  | 2.0981e-05 | 2.9723e-05 | 5.1022e-05 |   0.0 |  0.06
Modify  | 0.00025535 | 0.0020096  | 0.010314   |   8.3 |  4.26
Other   |            | 0.003077   |            |       |  6.52

Nlocal:        16.1667 ave          96 max           0 min
Histogram: 5 0 0 0 0 0 0 0 0 1
Nghost:        39.5000 ave          57 max           0 min
Histogram: 1 0 0 0 1 0 0 0 1 3
Neighs:        73.5000 ave         436 max           0 min
Histogram: 5 0 0 0 0 0 0 0 0 1

Total # of neighbors = 441
Ave neighs/atom = 4.5463918
Ave special neighs/atom = 1.9793814
Neighbor list builds = 0
Dangerous builds = 0

timestep 0.1
run 2000
Per MPI rank memory allocation (min/avg/max) = 8.891 | 8.953 | 9.133 Mbytes
Step PotEng Temp Press KinEng Lx Ly Lz Pzz S/CPU Density 
    2000   -11.289142    342.88243   0.40860596    98.118469          300          300          300   0.30724315            0 0.00066940445 
    4000    5.0958889    289.00023  -0.17399349     82.69966          300          300          300  -0.11953757    42789.851 0.00066940445 
Loop time of 0.0467502 on 6 procs for 2000 steps with 97 atoms

Performance: 369.624 ns/day, 0.065 hours/ns, 42780.540 timesteps/s
98.5% CPU use with 6 MPI tasks x no OpenMP threads

MPI task timing breakdown:
Section |  min time  |  avg time  |  max time  |%varavg| %total
---------------------------------------------------------------
Pair    | 0.00055003 | 0.0033413  | 0.016806   |  10.4 |  7.15
Bond    | 6.1274e-05 | 0.00043368 | 0.0021555  |   0.0 |  0.93
Neigh   | 0          | 0          | 0          |   0.0 |  0.00
Comm    | 0.016423   | 0.037923   | 0.042971   |   4.9 | 81.12
Output  | 2.0027e-05 | 2.5113e-05 | 2.8133e-05 |   0.0 |  0.05
Modify  | 0.0002799  | 0.0020258  | 0.010323   |   8.2 |  4.33
Other   |            | 0.003001   |            |       |  6.42

Nlocal:        16.1667 ave          96 max           0 min
Histogram: 5 0 0 0 0 0 0 0 0 1
Nghost:        39.5000 ave          57 max           0 min
Histogram: 1 0 0 0 1 0 0 0 1 3
Neighs:        73.5000 ave         436 max           0 min
Histogram: 5 0 0 0 0 0 0 0 0 1

Total # of neighbors = 441
Ave neighs/atom = 4.5463918
Ave special neighs/atom = 1.9793814
Neighbor list builds = 0
Dangerous builds = 0

timestep 1
run 2000
Per MPI rank memory allocation (min/avg/max) = 8.891 | 8.953 | 9.133 Mbytes
Step PotEng Temp Press KinEng Lx Ly Lz Pzz S/CPU Density 
    4000    5.0958889    289.00023  -0.17399349     82.69966          300          300          300  -0.11953757            0 0.00066940445 
    6000    12.089042    272.77685  -0.12193586    78.057215          300          300          300  0.087921209    42856.089 0.00066940445 
Loop time of 0.046678 on 6 procs for 2000 steps with 97 atoms

Performance: 3701.956 ns/day, 0.006 hours/ns, 42846.713 timesteps/s
98.8% CPU use with 6 MPI tasks x no OpenMP threads

MPI task timing breakdown:
Section |  min time  |  avg time  |  max time  |%varavg| %total
---------------------------------------------------------------
Pair    | 0.0005641  | 0.0033225  | 0.016519   |  10.2 |  7.12
Bond    | 7.1049e-05 | 0.00044878 | 0.0021749  |   0.0 |  0.96
Neigh   | 0.00028396 | 0.00030355 | 0.0003202  |   0.0 |  0.65
Comm    | 0.016394   | 0.037574   | 0.042608   |   4.9 | 80.50
Output  | 2.0027e-05 | 2.4994e-05 | 2.7895e-05 |   0.0 |  0.05
Modify  | 0.00025916 | 0.0020228  | 0.010273   |   8.2 |  4.33
Other   |            | 0.002981   |            |       |  6.39

Nlocal:        16.1667 ave          95 max           0 min
Histogram: 5 0 0 0 0 0 0 0 0 1
Nghost:        38.6667 ave          58 max           0 min
Histogram: 1 0 0 0 1 0 0 0 3 1
Neighs:        73.6667 ave         431 max           0 min
Histogram: 5 0 0 0 0 0 0 0 0 1

Total # of neighbors = 442
Ave neighs/atom = 4.5567010
Ave special neighs/atom = 1.9793814
Neighbor list builds = 5
Dangerous builds = 0

####Collapse the IDR

timestep 10
run 1000000
Per MPI rank memory allocation (min/avg/max) = 8.892 | 8.974 | 9.133 Mbytes
Step PotEng Temp Press KinEng Lx Ly Lz Pzz S/CPU Density 
    6000    12.089042    272.77685  -0.12193586    78.057215          300          300          300  0.087921209            0 0.00066940445 
 1000000    3.1484596    316.24998 -0.030442573    90.497388          300          300          300  -0.13374163    24082.172 0.00066940445 
 1006000    3.7481888    360.70625  -0.12709332    103.21889          300          300          300 -0.025607224     18650.11 0.00066940445 
Loop time of 41.5971 on 6 procs for 1000000 steps with 97 atoms

Performance: 20770.689 ns/day, 0.001 hours/ns, 24040.149 timesteps/s
99.7% CPU use with 6 MPI tasks x no OpenMP threads

MPI task timing breakdown:
Section |  min time  |  avg time  |  max time  |%varavg| %total
---------------------------------------------------------------
Pair    | 2.5079     | 5.4011     | 8.7993     |  80.4 | 12.98
Bond    | 0.15248    | 0.22217    | 0.3134     |  10.3 |  0.53
Neigh   | 1.9852     | 2.0032     | 2.014      |   0.7 |  4.82
Comm    | 27.843     | 31.769     | 35.029     |  37.9 | 76.37
Output  | 0.0012853  | 0.0014673  | 0.0021918  |   0.8 |  0.00
Modify  | 0.67461    | 1.0266     | 1.5232     |  25.1 |  2.47
Other   |            | 1.174      |            |       |  2.82

Nlocal:        16.1667 ave          97 max           0 min
Histogram: 5 0 0 0 0 0 0 0 0 1
Nghost:        14.6667 ave          37 max           0 min
Histogram: 3 0 0 0 0 1 0 0 1 1
Neighs:        298.000 ave        1788 max           0 min
Histogram: 5 0 0 0 0 0 0 0 0 1

Total # of neighbors = 1788
Ave neighs/atom = 18.432990
Ave special neighs/atom = 1.9793814
Neighbor list builds = 27436
Dangerous builds = 0

####Replicate initial system

replicate 4 4 4
Replicating atoms ...
  orthogonal box = (0.0000000 0.0000000 0.0000000) to (1200.0000 1200.0000 1200.0000)
  1 by 2 by 3 MPI processor grid
  6208 atoms
  6144 bonds
Finding 1-2 1-3 1-4 neighbors ...
  special bond factors lj:    0        1        1       
  special bond factors coul:  0        1        1       
     2 = max # of 1-2 neighbors
     6 = max # of special neighbors
  special bonds CPU = 0.000 seconds
  replicate CPU = 0.004 seconds

run 1
Per MPI rank memory allocation (min/avg/max) = 11.62 | 11.64 | 11.68 Mbytes
Step PotEng Temp Press KinEng Lx Ly Lz Pzz S/CPU Density 
 1006000    239.88408    357.04514  -0.12709332    6606.0092         1200         1200         1200 -0.025607224            0 0.00066940445 
 1006001    158.92473    361.29794  -0.11669596     6684.694         1200         1200         1200 -0.0021274212    1017.2942 0.00066940445 
Loop time of 0.000991821 on 6 procs for 1 steps with 6208 atoms

Performance: 871.125 ns/day, 0.028 hours/ns, 1008.246 timesteps/s
99.8% CPU use with 6 MPI tasks x no OpenMP threads

MPI task timing breakdown:
Section |  min time  |  avg time  |  max time  |%varavg| %total
---------------------------------------------------------------
Pair    | 0.00035    | 0.00047803 | 0.00072813 |   0.0 | 48.20
Bond    | 1.3828e-05 | 1.8636e-05 | 2.7895e-05 |   0.0 |  1.88
Neigh   | 0          | 0          | 0          |   0.0 |  0.00
Comm    | 1.0967e-05 | 0.00027267 | 0.00040698 |   0.0 | 27.49
Output  | 2.6941e-05 | 0.00014277 | 0.0001781  |   0.0 | 14.40
Modify  | 4.1962e-05 | 7.3949e-05 | 0.00019193 |   0.0 |  7.46
Other   |            | 5.762e-06  |            |       |  0.58

Nlocal:        1034.67 ave        1552 max         776 min
Histogram: 4 0 0 0 0 0 0 0 0 2
Nghost:        82.6667 ave         248 max           0 min
Histogram: 4 0 0 0 0 0 0 0 0 2
Neighs:        19114.7 ave       28672 max       14336 min
Histogram: 4 0 0 0 0 0 0 0 0 2

Total # of neighbors = 114688
Ave neighs/atom = 18.474227
Ave special neighs/atom = 1.9793814
Neighbor list builds = 0
Dangerous builds = 0

####Smaller box size

#change_box all x final 0 300 y final 0 300 z final 0 300 remap

####Loop to compress

variable myDensity equal density
label loop
variable a loop 1000
change_box all x scale 0.95 y scale 0.95 z scale 0.95 remap
Changing box ...
  orthogonal box = (30.000000 0.0000000 0.0000000) to (1170.0000 1200.0000 1200.0000)
  orthogonal box = (30.000000 30.000000 0.0000000) to (1170.0000 1170.0000 1200.0000)
  orthogonal box = (30.000000 30.000000 30.000000) to (1170.0000 1170.0000 1170.0000)
run 8000
Per MPI rank memory allocation (min/avg/max) = 11.62 | 11.64 | 11.68 Mbytes
Step PotEng Temp Press KinEng Lx Ly Lz Pzz S/CPU Density 
 1006001    1746.9698    361.29794    1.5195617     6684.694         1140         1140         1140    1.3052291            0 0.0007807604 
 1014001    759.14838    358.20496 0.0012117732    6627.4681         1140         1140         1140  0.021845495    1442.5835 0.0007807604 
Loop time of 5.54573 on 6 procs for 8000 steps with 6208 atoms

Performance: 1246.365 ns/day, 0.019 hours/ns, 1442.552 timesteps/s
99.7% CPU use with 6 MPI tasks x no OpenMP threads

MPI task timing breakdown:
Section |  min time  |  avg time  |  max time  |%varavg| %total
---------------------------------------------------------------
Pair    | 2.0897     | 2.7882     | 4.1488     |  54.4 | 50.28
Bond    | 0.067326   | 0.090324   | 0.13453    |  10.3 |  1.63
Neigh   | 0.46859    | 0.47146    | 0.47452    |   0.3 |  8.50
Comm    | 0.13075    | 1.7024     | 2.5067     |  81.1 | 30.70
Output  | 4.1008e-05 | 8.3884e-05 | 0.00019193 |   0.0 |  0.00
Modify  | 0.33044    | 0.43818    | 0.64718    |  22.2 |  7.90
Other   |            | 0.05501    |            |       |  0.99

Nlocal:        1034.67 ave        1514 max         776 min
Histogram: 4 0 0 0 0 0 0 0 0 2
Nghost:        187.833 ave         467 max          38 min
Histogram: 3 1 0 0 0 0 0 0 1 1
Neighs:        15562.2 ave       22896 max       11684 min
Histogram: 4 0 0 0 0 0 0 0 0 2

Total # of neighbors = 93373
Ave neighs/atom = 15.040754
Ave special neighs/atom = 1.9793814
Neighbor list builds = 322
Dangerous builds = 0

if "${myDensity} > 1.0" then "jump SELF break"

next a
jump SELF loop
variable a loop 1000
change_box all x scale 0.95 y scale 0.95 z scale 0.95 remap
Changing box ...
  orthogonal box = (58.500000 30.000000 30.000000) to (1141.5000 1170.0000 1170.0000)
  orthogonal box = (58.500000 58.500000 30.000000) to (1141.5000 1141.5000 1170.0000)
  orthogonal box = (58.500000 58.500000 58.500000) to (1141.5000 1141.5000 1141.5000)
run 8000
Per MPI rank memory allocation (min/avg/max) = 11.62 | 11.64 | 11.68 Mbytes
Step PotEng Temp Press KinEng Lx Ly Lz Pzz S/CPU Density 
 1014001    2855.2895    358.20496    1.9700023    6627.4681         1083         1083         1083    2.0346167            0 0.0009106405 
 1022001    763.17398    356.38225 -0.023965655    6593.7445         1083         1083         1083  0.010435628    1460.0078 0.0009106405 
Loop time of 5.48035 on 6 procs for 8000 steps with 6208 atoms

Performance: 1261.232 ns/day, 0.019 hours/ns, 1459.760 timesteps/s
99.7% CPU use with 6 MPI tasks x no OpenMP threads

MPI task timing breakdown:
Section |  min time  |  avg time  |  max time  |%varavg| %total
---------------------------------------------------------------
Pair    | 1.9627     | 2.6475     | 4.1024     |  57.1 | 48.31
Bond    | 0.067233   | 0.090278   | 0.13032    |   9.4 |  1.65
Neigh   | 0.46462    | 0.468      | 0.47173    |   0.4 |  8.54
Comm    | 0.13811    | 1.784      | 2.5618     |  79.7 | 32.55
Output  | 3.9816e-05 | 0.00021585 | 0.00099707 |   0.0 |  0.00
Modify  | 0.33077    | 0.43839    | 0.62961    |  20.2 |  8.00
Other   |            | 0.05192    |            |       |  0.95

Nlocal:        1034.67 ave        1478 max         776 min
Histogram: 3 1 0 0 0 0 0 0 0 2
Nghost:        201.500 ave         466 max          41 min
Histogram: 2 1 1 0 0 0 0 0 1 1
Neighs:        16196.7 ave       26547 max       11380 min
Histogram: 4 0 0 0 0 0 0 0 1 1

Total # of neighbors = 97180
Ave neighs/atom = 15.653995
Ave special neighs/atom = 1.9793814
Neighbor list builds = 329
Dangerous builds = 0

if "${myDensity} > 1.0" then "jump SELF break"

next a
jump SELF loop
variable a loop 1000
change_box all x scale 0.95 y scale 0.95 z scale 0.95 remap
Changing box ...
  orthogonal box = (85.575000 58.500000 58.500000) to (1114.4250 1141.5000 1141.5000)
  orthogonal box = (85.575000 85.575000 58.500000) to (1114.4250 1114.4250 1141.5000)
  orthogonal box = (85.575000 85.575000 85.575000) to (1114.4250 1114.4250 1114.4250)
run 8000
Per MPI rank memory allocation (min/avg/max) = 11.62 | 11.64 | 11.68 Mbytes
Step PotEng Temp Press KinEng Lx Ly Lz Pzz S/CPU Density 
 1022001    2792.4981    356.38225    2.2699565    6593.7445      1028.85      1028.85      1028.85    2.3316707            0 0.0010621263 
 1030001    817.12581    347.99573 -0.022172816    6438.5779      1028.85      1028.85      1028.85 -0.013781982    1438.1029 0.0010621263 
Loop time of 5.56302 on 6 procs for 8000 steps with 6208 atoms

Performance: 1242.492 ns/day, 0.019 hours/ns, 1438.069 timesteps/s
99.7% CPU use with 6 MPI tasks x no OpenMP threads

MPI task timing breakdown:
Section |  min time  |  avg time  |  max time  |%varavg| %total
---------------------------------------------------------------
Pair    | 1.8665     | 2.6704     | 4.209      |  59.1 | 48.00
Bond    | 0.067025   | 0.090014   | 0.12958    |   8.7 |  1.62
Neigh   | 0.45457    | 0.45818    | 0.46122    |   0.4 |  8.24
Comm    | 0.12742    | 1.8569     | 2.766      |  80.1 | 33.38
Output  | 4.2915e-05 | 8.5195e-05 | 0.00019908 |   0.0 |  0.00
Modify  | 0.33044    | 0.43768    | 0.62363    |  18.9 |  7.87
Other   |            | 0.04974    |            |       |  0.89

Nlocal:        1034.67 ave        1482 max         776 min
Histogram: 3 1 0 0 0 0 0 0 0 2
Nghost:        222.000 ave         488 max          68 min
Histogram: 2 0 2 0 0 0 1 0 0 1
Neighs:        16120.0 ave       25179 max       11005 min
Histogram: 3 0 1 0 0 0 0 0 1 1

Total # of neighbors = 96720
Ave neighs/atom = 15.579897
Ave special neighs/atom = 1.9793814
Neighbor list builds = 329
Dangerous builds = 0

if "${myDensity} > 1.0" then "jump SELF break"

next a
jump SELF loop
variable a loop 1000
change_box all x scale 0.95 y scale 0.95 z scale 0.95 remap
Changing box ...
  orthogonal box = (111.29625 85.575000 85.575000) to (1088.7037 1114.4250 1114.4250)
  orthogonal box = (111.29625 111.29625 85.575000) to (1088.7037 1088.7037 1114.4250)
  orthogonal box = (111.29625 111.29625 111.29625) to (1088.7037 1088.7037 1088.7037)
run 8000
Per MPI rank memory allocation (min/avg/max) = 11.62 | 11.64 | 11.68 Mbytes
Step PotEng Temp Press KinEng Lx Ly Lz Pzz S/CPU Density 
 1030001    2872.5612    347.99573    2.6503252    6438.5779     977.4075     977.4075     977.4075    2.6699151            0 0.0012388118 
 1038001    716.15774    363.60296  0.014665449    6727.3413     977.4075     977.4075     977.4075  0.044022242    1517.6303 0.0012388118 
Loop time of 5.27257 on 6 procs for 8000 steps with 6208 atoms

Performance: 1310.937 ns/day, 0.018 hours/ns, 1517.288 timesteps/s
99.7% CPU use with 6 MPI tasks x no OpenMP threads

MPI task timing breakdown:
Section |  min time  |  avg time  |  max time  |%varavg| %total
---------------------------------------------------------------
Pair    | 1.817      | 2.5888     | 3.8709     |  55.8 | 49.10
Bond    | 0.067126   | 0.090067   | 0.12653    |   8.6 |  1.71
Neigh   | 0.42212    | 0.42541    | 0.42936    |   0.4 |  8.07
Comm    | 0.22505    | 1.6806     | 2.5533     |  78.7 | 31.87
Output  | 3.8862e-05 | 0.00026043 | 0.00126    |   0.0 |  0.00
Modify  | 0.3305     | 0.43747    | 0.60815    |  18.4 |  8.30
Other   |            | 0.05001    |            |       |  0.95

Nlocal:        1034.67 ave        1498 max         776 min
Histogram: 3 1 0 0 0 0 0 0 1 1
Nghost:        265.000 ave         585 max          89 min
Histogram: 2 1 0 1 0 0 1 0 0 1
Neighs:        15840.7 ave       24244 max       10618 min
Histogram: 1 3 0 0 0 0 0 0 1 1

Total # of neighbors = 95044
Ave neighs/atom = 15.309923
Ave special neighs/atom = 1.9793814
Neighbor list builds = 325
Dangerous builds = 0

if "${myDensity} > 1.0" then "jump SELF break"

next a
jump SELF loop
variable a loop 1000
change_box all x scale 0.95 y scale 0.95 z scale 0.95 remap
Changing box ...
  orthogonal box = (135.73144 111.29625 111.29625) to (1064.2686 1088.7037 1088.7037)
  orthogonal box = (135.73144 135.73144 111.29625) to (1064.2686 1064.2686 1088.7037)
  orthogonal box = (135.73144 135.73144 135.73144) to (1064.2686 1064.2686 1064.2686)
run 8000
Per MPI rank memory allocation (min/avg/max) = 11.62 | 11.64 | 11.68 Mbytes
Step PotEng Temp Press KinEng Lx Ly Lz Pzz S/CPU Density 
 1038001    2812.1117    363.60296    3.1203809    6727.3413    928.53712    928.53712    928.53712    3.1563454            0 0.0014448891 
 1046001    727.40946    354.43913 -0.035672564     6557.793    928.53712    928.53712    928.53712 -0.013450677    1552.3563 0.0014448891 
Loop time of 5.15357 on 6 procs for 8000 steps with 6208 atoms

Performance: 1341.207 ns/day, 0.018 hours/ns, 1552.323 timesteps/s
99.7% CPU use with 6 MPI tasks x no OpenMP threads

MPI task timing breakdown:
Section |  min time  |  avg time  |  max time  |%varavg| %total
---------------------------------------------------------------
Pair    | 1.9085     | 2.6263     | 3.8065     |  48.1 | 50.96
Bond    | 0.067116   | 0.089974   | 0.12938    |   8.4 |  1.75
Neigh   | 0.41208    | 0.41484    | 0.419      |   0.4 |  8.05
Comm    | 0.1594     | 1.5328     | 2.3517     |  72.7 | 29.74
Output  | 3.8862e-05 | 7.844e-05  | 0.00017595 |   0.0 |  0.00
Modify  | 0.33159    | 0.43785    | 0.62953    |  18.2 |  8.50
Other   |            | 0.05175    |            |       |  1.00

Nlocal:        1034.67 ave        1490 max         776 min
Histogram: 3 1 0 0 0 0 0 0 1 1
Nghost:        291.000 ave         560 max         129 min
Histogram: 2 1 0 0 1 0 1 0 0 1
Neighs:        16512.3 ave       23702 max       12686 min
Histogram: 3 0 1 0 0 0 0 1 0 1

Total # of neighbors = 99074
Ave neighs/atom = 15.959085
Ave special neighs/atom = 1.9793814
Neighbor list builds = 332
Dangerous builds = 0

if "${myDensity} > 1.0" then "jump SELF break"

next a
jump SELF loop
variable a loop 1000
change_box all x scale 0.95 y scale 0.95 z scale 0.95 remap
Changing box ...
  orthogonal box = (158.94487 135.73144 135.73144) to (1041.0551 1064.2686 1064.2686)
  orthogonal box = (158.94487 158.94487 135.73144) to (1041.0551 1041.0551 1064.2686)
  orthogonal box = (158.94487 158.94487 158.94487) to (1041.0551 1041.0551 1041.0551)
run 8000
Per MPI rank memory allocation (min/avg/max) = 11.62 | 11.64 | 11.68 Mbytes
Step PotEng Temp Press KinEng Lx Ly Lz Pzz S/CPU Density 
 1046001    2795.7549    354.43913    3.6503804     6557.793    882.11027    882.11027    882.11027    3.6746242            0 0.0016852475 
 1054001    733.57708    358.51066 -0.00077110116    6633.1241    882.11027    882.11027    882.11027 0.0051076778    1507.5827 0.0016852475 
Loop time of 5.30706 on 6 procs for 8000 steps with 6208 atoms

Performance: 1302.417 ns/day, 0.018 hours/ns, 1507.427 timesteps/s
99.7% CPU use with 6 MPI tasks x no OpenMP threads

MPI task timing breakdown:
Section |  min time  |  avg time  |  max time  |%varavg| %total
---------------------------------------------------------------
Pair    | 2.1719     | 2.7751     | 3.9491     |  43.4 | 52.29
Bond    | 0.067121   | 0.090123   | 0.12796    |   8.8 |  1.70
Neigh   | 0.39439    | 0.39697    | 0.40053    |   0.3 |  7.48
Comm    | 0.19959    | 1.554      | 2.2598     |  68.0 | 29.28
Output  | 4.3869e-05 | 0.00015505 | 0.00061512 |   0.0 |  0.00
Modify  | 0.33064    | 0.43811    | 0.61576    |  18.9 |  8.26
Other   |            | 0.05262    |            |       |  0.99

Nlocal:        1034.67 ave        1490 max         776 min
Histogram: 3 1 0 0 0 0 0 0 0 2
Nghost:        289.667 ave         534 max         147 min
Histogram: 2 0 1 1 0 0 1 0 0 1
Neighs:        17110.3 ave       25504 max       12836 min
Histogram: 3 1 0 0 0 0 0 1 0 1

Total # of neighbors = 102662
Ave neighs/atom = 16.537049
Ave special neighs/atom = 1.9793814
Neighbor list builds = 319
Dangerous builds = 0

if "${myDensity} > 1.0" then "jump SELF break"

next a
jump SELF loop
variable a loop 1000
change_box all x scale 0.95 y scale 0.95 z scale 0.95 remap
Changing box ...
  orthogonal box = (180.99762 158.94487 158.94487) to (1019.0024 1041.0551 1041.0551)
  orthogonal box = (180.99762 180.99762 158.94487) to (1019.0024 1019.0024 1041.0551)
  orthogonal box = (180.99762 180.99762 180.99762) to (1019.0024 1019.0024 1019.0024)
run 8000
Per MPI rank memory allocation (min/avg/max) = 11.62 | 11.64 | 11.68 Mbytes
Step PotEng Temp Press KinEng Lx Ly Lz Pzz S/CPU Density 
 1054001    2852.8009    358.51066    4.2991602    6633.1241    838.00476    838.00476    838.00476    4.3015098            0 0.0019655898 
 1062001    874.63647    355.80817  -0.07851634     6583.123    838.00476    838.00476    838.00476 -0.070448294    1519.0135 0.0019655898 
Loop time of 5.26669 on 6 procs for 8000 steps with 6208 atoms

Performance: 1312.399 ns/day, 0.018 hours/ns, 1518.980 timesteps/s
99.7% CPU use with 6 MPI tasks x no OpenMP threads

MPI task timing breakdown:
Section |  min time  |  avg time  |  max time  |%varavg| %total
---------------------------------------------------------------
Pair    | 1.9585     | 2.6255     | 3.8748     |  51.8 | 49.85
Bond    | 0.06702    | 0.09014    | 0.13035    |   9.3 |  1.71
Neigh   | 0.40574    | 0.40834    | 0.41203    |   0.4 |  7.75
Comm    | 0.21125    | 1.6511     | 2.4025     |  75.7 | 31.35
Output  | 4.1962e-05 | 8.4519e-05 | 0.00018597 |   0.0 |  0.00
Modify  | 0.33059    | 0.43813    | 0.62588    |  19.9 |  8.32
Other   |            | 0.0534     |            |       |  1.01

Nlocal:        1034.67 ave        1484 max         776 min
Histogram: 4 0 0 0 0 0 0 0 0 2
Nghost:        334.167 ave         609 max          86 min
Histogram: 1 0 0 3 0 0 0 1 0 1
Neighs:        15264.2 ave       23679 max        9546 min
Histogram: 1 2 1 0 0 0 0 0 1 1

Total # of neighbors = 91585
Ave neighs/atom = 14.752738
Ave special neighs/atom = 1.9793814
Neighbor list builds = 335
Dangerous builds = 0

if "${myDensity} > 1.0" then "jump SELF break"

next a
jump SELF loop
variable a loop 1000
change_box all x scale 0.95 y scale 0.95 z scale 0.95 remap
Changing box ...
  orthogonal box = (201.94774 180.99762 180.99762) to (998.05226 1019.0024 1019.0024)
  orthogonal box = (201.94774 201.94774 180.99762) to (998.05226 998.05226 1019.0024)
  orthogonal box = (201.94774 201.94774 201.94774) to (998.05226 998.05226 998.05226)
run 8000
Per MPI rank memory allocation (min/avg/max) = 11.62 | 11.64 | 11.68 Mbytes
Step PotEng Temp Press KinEng Lx Ly Lz Pzz S/CPU Density 
 1062001    2867.1122    355.80817    4.8648027     6583.123    796.10452    796.10452    796.10452    4.9146634            0 0.0022925672 
 1070001     795.9924    359.90447 -0.029229663    6658.9121    796.10452    796.10452    796.10452  0.017821023    1532.6912 0.0022925672 
Loop time of 5.22104 on 6 procs for 8000 steps with 6208 atoms

Performance: 1323.874 ns/day, 0.018 hours/ns, 1532.261 timesteps/s
99.7% CPU use with 6 MPI tasks x no OpenMP threads

MPI task timing breakdown:
Section |  min time  |  avg time  |  max time  |%varavg| %total
---------------------------------------------------------------
Pair    | 1.7245     | 2.4887     | 3.8463     |  56.2 | 47.67
Bond    | 0.067185   | 0.090153   | 0.13395    |   9.0 |  1.73
Neigh   | 0.39088    | 0.39324    | 0.3964     |   0.3 |  7.53
Comm    | 0.18733    | 1.7528     | 2.5894     |  76.6 | 33.57
Output  | 4.0054e-05 | 0.00030939 | 0.0015361  |   0.0 |  0.01
Modify  | 0.33071    | 0.43797    | 0.64383    |  19.4 |  8.39
Other   |            | 0.05794    |            |       |  1.11

Nlocal:        1034.67 ave        1540 max         776 min
Histogram: 3 1 0 0 0 0 0 1 0 1
Nghost:        348.833 ave         606 max          65 min
Histogram: 1 0 0 1 1 1 0 1 0 1
Neighs:        15380.2 ave       23692 max       11387 min
Histogram: 3 1 0 0 0 0 0 0 1 1

Total # of neighbors = 92281
Ave neighs/atom = 14.864852
Ave special neighs/atom = 1.9793814
Neighbor list builds = 329
Dangerous builds = 0

if "${myDensity} > 1.0" then "jump SELF break"

next a
jump SELF loop
variable a loop 1000
change_box all x scale 0.95 y scale 0.95 z scale 0.95 remap
Changing box ...
  orthogonal box = (221.85035 201.94774 201.94774) to (978.14965 998.05226 998.05226)
  orthogonal box = (221.85035 221.85035 201.94774) to (978.14965 978.14965 998.05226)
  orthogonal box = (221.85035 221.85035 221.85035) to (978.14965 978.14965 978.14965)
run 8000
Per MPI rank memory allocation (min/avg/max) = 11.62 | 11.64 | 11.68 Mbytes
Step PotEng Temp Press KinEng Lx Ly Lz Pzz S/CPU Density 
 1070001    2847.9389    359.90447    5.7372128    6658.9121    756.29929    756.29929    756.29929    5.7087347            0 0.0026739375 
 1078001    697.34519    361.85778  0.054551404    6695.0521    756.29929    756.29929    756.29929  0.077153411    1452.0047 0.0026739375 
Loop time of 5.50975 on 6 procs for 8000 steps with 6208 atoms

Performance: 1254.504 ns/day, 0.019 hours/ns, 1451.973 timesteps/s
99.7% CPU use with 6 MPI tasks x no OpenMP threads

MPI task timing breakdown:
Section |  min time  |  avg time  |  max time  |%varavg| %total
---------------------------------------------------------------
Pair    | 1.8571     | 2.6308     | 4.1281     |  56.6 | 47.75
Bond    | 0.067045   | 0.090088   | 0.13317    |   8.7 |  1.64
Neigh   | 0.39994    | 0.40296    | 0.40638    |   0.3 |  7.31
Comm    | 0.19242    | 1.8929     | 2.7712     |  75.7 | 34.36
Output  | 4.22e-05   | 8.2652e-05 | 0.00018597 |   0.0 |  0.00
Modify  | 0.33063    | 0.43787    | 0.63832    |  18.5 |  7.95
Other   |            | 0.05498    |            |       |  1.00

Nlocal:        1034.67 ave        1488 max         776 min
Histogram: 3 1 0 0 0 0 0 0 1 1
Nghost:        408.333 ave         660 max          72 min
Histogram: 1 0 0 0 2 0 1 0 0 2
Neighs:        16431.2 ave       24780 max       11141 min
Histogram: 1 3 0 0 0 0 0 0 0 2

Total # of neighbors = 98587
Ave neighs/atom = 15.880638
Ave special neighs/atom = 1.9793814
Neighbor list builds = 336
Dangerous builds = 0

if "${myDensity} > 1.0" then "jump SELF break"

next a
jump SELF loop
variable a loop 1000
change_box all x scale 0.95 y scale 0.95 z scale 0.95 remap
Changing box ...
  orthogonal box = (240.75784 221.85035 221.85035) to (959.24216 978.14965 978.14965)
  orthogonal box = (240.75784 240.75784 221.85035) to (959.24216 959.24216 978.14965)
  orthogonal box = (240.75784 240.75784 240.75784) to (959.24216 959.24216 959.24216)
run 8000
Per MPI rank memory allocation (min/avg/max) = 11.62 | 11.64 | 11.68 Mbytes
Step PotEng Temp Press KinEng Lx Ly Lz Pzz S/CPU Density 
 1078001     2843.339    361.85778    6.8289819    6695.0521    718.48433    718.48433    718.48433     6.799864            0 0.0031187491 
 1086001    693.86078     359.0303  0.090447931    6642.7383    718.48433    718.48433    718.48433   0.21016546     1545.429 0.0031187491 
Loop time of 5.17667 on 6 procs for 8000 steps with 6208 atoms

Performance: 1335.222 ns/day, 0.018 hours/ns, 1545.396 timesteps/s
99.7% CPU use with 6 MPI tasks x no OpenMP threads

MPI task timing breakdown:
Section |  min time  |  avg time  |  max time  |%varavg| %total
---------------------------------------------------------------
Pair    | 1.9635     | 2.6513     | 3.7744     |  48.6 | 51.22
Bond    | 0.06699    | 0.090171   | 0.1268     |   8.0 |  1.74
Neigh   | 0.36849    | 0.37086    | 0.37415    |   0.3 |  7.16
Comm    | 0.28273    | 1.5774     | 2.3586     |  71.9 | 30.47
Output  | 3.7193e-05 | 7.5777e-05 | 0.00016904 |   0.0 |  0.00
Modify  | 0.3306     | 0.43773    | 0.60658    |  17.0 |  8.46
Other   |            | 0.0491     |            |       |  0.95

Nlocal:        1034.67 ave        1450 max         776 min
Histogram: 2 2 0 0 0 0 0 0 1 1
Nghost:        419.667 ave         660 max         111 min
Histogram: 1 0 1 0 1 0 1 0 0 2
Neighs:        16507.2 ave       24809 max       12110 min
Histogram: 3 0 1 0 0 0 0 1 0 1

Total # of neighbors = 99043
Ave neighs/atom = 15.954091
Ave special neighs/atom = 1.9793814
Neighbor list builds = 323
Dangerous builds = 0

if "${myDensity} > 1.0" then "jump SELF break"

next a
jump SELF loop
variable a loop 1000
change_box all x scale 0.95 y scale 0.95 z scale 0.95 remap
Changing box ...
  orthogonal box = (258.71994 240.75784 240.75784) to (941.28006 959.24216 959.24216)
  orthogonal box = (258.71994 258.71994 240.75784) to (941.28006 941.28006 959.24216)
  orthogonal box = (258.71994 258.71994 258.71994) to (941.28006 941.28006 941.28006)
run 8000
Per MPI rank memory allocation (min/avg/max) = 11.62 | 11.64 | 11.68 Mbytes
Step PotEng Temp Press KinEng Lx Ly Lz Pzz S/CPU Density 
 1086001    2868.8274     359.0303    8.0095608    6642.7383    682.56011    682.56011    682.56011    8.1935112            0 0.0036375554 
 1094001    731.18411    361.55613  0.066504786     6689.471    682.56011    682.56011    682.56011  0.076135921    1586.8781 0.0036375554 
Loop time of 5.04145 on 6 procs for 8000 steps with 6208 atoms

Performance: 1371.035 ns/day, 0.018 hours/ns, 1586.847 timesteps/s
99.7% CPU use with 6 MPI tasks x no OpenMP threads

MPI task timing breakdown:
Section |  min time  |  avg time  |  max time  |%varavg| %total
---------------------------------------------------------------
Pair    | 2.137      | 2.7115     | 3.7035     |  41.4 | 53.78
Bond    | 0.067089   | 0.090159   | 0.12293    |   7.2 |  1.79
Neigh   | 0.37312    | 0.37519    | 0.37825    |   0.3 |  7.44
Comm    | 0.22996    | 1.3792     | 2.0579     |  66.6 | 27.36
Output  | 3.8147e-05 | 7.1724e-05 | 0.00015783 |   0.0 |  0.00
Modify  | 0.33103    | 0.43877    | 0.59511    |  15.2 |  8.70
Other   |            | 0.04654    |            |       |  0.92

Nlocal:        1034.67 ave        1404 max         776 min
Histogram: 1 1 0 2 0 0 0 1 0 1
Nghost:        412.000 ave         555 max         151 min
Histogram: 1 0 0 1 0 0 1 0 1 2
Neighs:        16859.2 ave       22330 max       13848 min
Histogram: 1 3 0 0 0 0 0 1 0 1

Total # of neighbors = 101155
Ave neighs/atom = 16.294298
Ave special neighs/atom = 1.9793814
Neighbor list builds = 336
Dangerous builds = 0

if "${myDensity} > 1.0" then "jump SELF break"

next a
jump SELF loop
variable a loop 1000
change_box all x scale 0.95 y scale 0.95 z scale 0.95 remap
Changing box ...
  orthogonal box = (275.78395 258.71994 258.71994) to (924.21605 941.28006 941.28006)
  orthogonal box = (275.78395 275.78395 258.71994) to (924.21605 924.21605 941.28006)
  orthogonal box = (275.78395 275.78395 275.78395) to (924.21605 924.21605 924.21605)
run 8000
Per MPI rank memory allocation (min/avg/max) = 11.62 | 11.64 | 11.68 Mbytes
Step PotEng Temp Press KinEng Lx Ly Lz Pzz S/CPU Density 
 1094001    2875.0857    361.55613    9.2928186     6689.471    648.43211    648.43211    648.43211    9.2933634            0 0.0042426656 
 1102001    738.37882    352.15394  -0.11789254    6515.5127    648.43211    648.43211    648.43211  -0.15361957    1671.4788 0.0042426656 
Loop time of 4.78621 on 6 procs for 8000 steps with 6208 atoms

Performance: 1444.150 ns/day, 0.017 hours/ns, 1671.470 timesteps/s
99.7% CPU use with 6 MPI tasks x no OpenMP threads

MPI task timing breakdown:
Section |  min time  |  avg time  |  max time  |%varavg| %total
---------------------------------------------------------------
Pair    | 2.2157     | 2.7151     | 3.5105     |  28.0 | 56.73
Bond    | 0.067247   | 0.089953   | 0.12246    |   6.2 |  1.88
Neigh   | 0.34848    | 0.35005    | 0.35279    |   0.3 |  7.31
Comm    | 0.19343    | 1.1449     | 1.7477     |  51.2 | 23.92
Output  | 0.002486   | 0.002728   | 0.002985   |   0.3 |  0.06
Modify  | 0.33183    | 0.43774    | 0.59245    |  13.2 |  9.15
Other   |            | 0.04573    |            |       |  0.96

Nlocal:        1034.67 ave        1401 max         786 min
Histogram: 1 1 0 2 0 1 0 0 0 1
Nghost:        514.000 ave         729 max         267 min
Histogram: 1 1 0 0 0 2 0 0 0 2
Neighs:        16589.0 ave       21857 max       11791 min
Histogram: 2 0 0 0 1 0 2 0 0 1

Total # of neighbors = 99534
Ave neighs/atom = 16.033183
Ave special neighs/atom = 1.9793814
Neighbor list builds = 329
Dangerous builds = 0

if "${myDensity} > 1.0" then "jump SELF break"

next a
jump SELF loop
variable a loop 1000
change_box all x scale 0.95 y scale 0.95 z scale 0.95 remap
Changing box ...
  orthogonal box = (291.99475 275.78395 275.78395) to (908.00525 924.21605 924.21605)
  orthogonal box = (291.99475 291.99475 275.78395) to (908.00525 908.00525 924.21605)
  orthogonal box = (291.99475 291.99475 291.99475) to (908.00525 908.00525 908.00525)
run 8000
Per MPI rank memory allocation (min/avg/max) = 11.77 | 11.81 | 11.87 Mbytes
Step PotEng Temp Press KinEng Lx Ly Lz Pzz S/CPU Density 
 1102001    2787.5475    352.15394    10.637183    6515.5127     616.0105     616.0105     616.0105    10.771615            0 0.0049484363 
 1110001    716.58615    353.15292 -0.031486501    6533.9957     616.0105     616.0105     616.0105  0.045275489    1595.6976 0.0049484363 
Loop time of 5.01359 on 6 procs for 8000 steps with 6208 atoms

Performance: 1378.652 ns/day, 0.017 hours/ns, 1595.663 timesteps/s
99.7% CPU use with 6 MPI tasks x no OpenMP threads

MPI task timing breakdown:
Section |  min time  |  avg time  |  max time  |%varavg| %total
---------------------------------------------------------------
Pair    | 2.0848     | 2.7835     | 3.7116     |  36.2 | 55.52
Bond    | 0.068589   | 0.090073   | 0.11813    |   5.8 |  1.80
Neigh   | 0.35379    | 0.35632    | 0.35932    |   0.3 |  7.11
Comm    | 0.24148    | 1.3026     | 2.0934     |  59.9 | 25.98
Output  | 3.6001e-05 | 6.8386e-05 | 0.00016499 |   0.0 |  0.00
Modify  | 0.33908    | 0.43814    | 0.5715     |  12.3 |  8.74
Other   |            | 0.04283    |            |       |  0.85

Nlocal:        1034.67 ave        1306 max         801 min
Histogram: 2 0 0 1 1 0 0 0 0 2
Nghost:        603.833 ave         934 max         258 min
Histogram: 1 0 0 0 1 3 0 0 0 1
Neighs:        17474.3 ave       22853 max       12989 min
Histogram: 2 0 1 0 1 0 0 0 0 2

Total # of neighbors = 104846
Ave neighs/atom = 16.888853
Ave special neighs/atom = 1.9793814
Neighbor list builds = 328
Dangerous builds = 0

if "${myDensity} > 1.0" then "jump SELF break"

next a
jump SELF loop
variable a loop 1000
change_box all x scale 0.95 y scale 0.95 z scale 0.95 remap
Changing box ...
  orthogonal box = (307.39501 291.99475 291.99475) to (892.60499 908.00525 908.00525)
  orthogonal box = (307.39501 307.39501 291.99475) to (892.60499 892.60499 908.00525)
  orthogonal box = (307.39501 307.39501 307.39501) to (892.60499 892.60499 892.60499)
run 8000
Per MPI rank memory allocation (min/avg/max) = 11.77 | 11.81 | 11.87 Mbytes
Step PotEng Temp Press KinEng Lx Ly Lz Pzz S/CPU Density 
 1110001    2821.4095    353.15292    12.541642    6533.9957    585.20997    585.20997    585.20997    12.722657            0 0.0057716126 
 1118001    623.58845    357.86509 -0.084673351    6621.1798    585.20997    585.20997    585.20997 -0.053710414    1640.4213 0.0057716126 
Loop time of 4.8769 on 6 procs for 8000 steps with 6208 atoms

Performance: 1417.292 ns/day, 0.017 hours/ns, 1640.385 timesteps/s
99.7% CPU use with 6 MPI tasks x no OpenMP threads

MPI task timing breakdown:
Section |  min time  |  avg time  |  max time  |%varavg| %total
---------------------------------------------------------------
Pair    | 2.0699     | 2.7509     | 3.6516     |  34.2 | 56.41
Bond    | 0.065423   | 0.090103   | 0.1105     |   5.3 |  1.85
Neigh   | 0.33114    | 0.33417    | 0.33671    |   0.3 |  6.85
Comm    | 0.23618    | 1.2285     | 2.0215     |  57.5 | 25.19
Output  | 4.1008e-05 | 6.934e-05  | 0.00016093 |   0.0 |  0.00
Modify  | 0.32268    | 0.43766    | 0.52809    |  11.2 |  8.97
Other   |            | 0.03545    |            |       |  0.73

Nlocal:        1034.67 ave        1256 max         725 min
Histogram: 1 0 0 1 0 1 1 0 1 1
Nghost:        685.000 ave         995 max         546 min
Histogram: 2 1 0 2 0 0 0 0 0 1
Neighs:        16904.0 ave       21562 max       12523 min
Histogram: 2 0 0 0 2 0 0 0 0 2

Total # of neighbors = 101424
Ave neighs/atom = 16.337629
Ave special neighs/atom = 1.9793814
Neighbor list builds = 329
Dangerous builds = 0

if "${myDensity} > 1.0" then "jump SELF break"

next a
jump SELF loop
variable a loop 1000
change_box all x scale 0.95 y scale 0.95 z scale 0.95 remap
Changing box ...
  orthogonal box = (322.02526 307.39501 307.39501) to (877.97474 892.60499 892.60499)
  orthogonal box = (322.02526 322.02526 307.39501) to (877.97474 877.97474 892.60499)
  orthogonal box = (322.02526 322.02526 322.02526) to (877.97474 877.97474 877.97474)
run 8000
Per MPI rank memory allocation (min/avg/max) = 11.77 | 11.81 | 11.87 Mbytes
Step PotEng Temp Press KinEng Lx Ly Lz Pzz S/CPU Density 
 1118001    2684.0075    357.86509    14.490371    6621.1798    555.94948    555.94948    555.94948    14.485888            0 0.0067317249 
 1126001    640.10554    355.09902  0.051971585    6570.0022    555.94948    555.94948    555.94948 -0.035937863    1686.7335 0.0067317249 
Loop time of 4.74301 on 6 procs for 8000 steps with 6208 atoms

Performance: 1457.303 ns/day, 0.016 hours/ns, 1686.693 timesteps/s
99.7% CPU use with 6 MPI tasks x no OpenMP threads

MPI task timing breakdown:
Section |  min time  |  avg time  |  max time  |%varavg| %total
---------------------------------------------------------------
Pair    | 2.1501     | 2.8157     | 3.5098     |  29.6 | 59.36
Bond    | 0.063743   | 0.090137   | 0.10692    |   4.8 |  1.90
Neigh   | 0.3306     | 0.33353    | 0.33586    |   0.3 |  7.03
Comm    | 0.26047    | 1.0335     | 1.8214     |  55.0 | 21.79
Output  | 4.0054e-05 | 6.4015e-05 | 0.00015402 |   0.0 |  0.00
Modify  | 0.31358    | 0.43796    | 0.5181     |  10.2 |  9.23
Other   |            | 0.03215    |            |       |  0.68

Nlocal:        1034.67 ave        1179 max         694 min
Histogram: 1 0 0 0 0 1 0 1 0 3
Nghost:        837.667 ave        1163 max         691 min
Histogram: 3 0 1 0 1 0 0 0 0 1
Neighs:        17972.7 ave       20725 max       11090 min
Histogram: 1 0 0 0 0 1 0 0 1 3

Total # of neighbors = 107836
Ave neighs/atom = 17.370490
Ave special neighs/atom = 1.9793814
Neighbor list builds = 323
Dangerous builds = 0

if "${myDensity} > 1.0" then "jump SELF break"

next a
jump SELF loop
variable a loop 1000
change_box all x scale 0.95 y scale 0.95 z scale 0.95 remap
Changing box ...
  orthogonal box = (335.92400 322.02526 322.02526) to (864.07600 877.97474 877.97474)
  orthogonal box = (335.92400 335.92400 322.02526) to (864.07600 864.07600 877.97474)
  orthogonal box = (335.92400 335.92400 335.92400) to (864.07600 864.07600 864.07600)
run 8000
Per MPI rank memory allocation (min/avg/max) = 11.78 | 11.81 | 11.87 Mbytes
Step PotEng Temp Press KinEng Lx Ly Lz Pzz S/CPU Density 
 1126001    2780.1026    355.09902     17.19352    6570.0022      528.152      528.152      528.152    17.460248            0 0.0078515525 
 1134001    707.49963    354.10467 -0.082506188    6551.6049      528.152      528.152      528.152  -0.21083908    1767.7538 0.0078515525 
Loop time of 4.52563 on 6 procs for 8000 steps with 6208 atoms

Performance: 1527.303 ns/day, 0.016 hours/ns, 1767.711 timesteps/s
99.7% CPU use with 6 MPI tasks x no OpenMP threads

MPI task timing breakdown:
Section |  min time  |  avg time  |  max time  |%varavg| %total
---------------------------------------------------------------
Pair    | 1.9674     | 2.8155     | 3.2838     |  26.0 | 62.21
Bond    | 0.060935   | 0.090477   | 0.1012     |   4.7 |  2.00
Neigh   | 0.31637    | 0.31958    | 0.32174    |   0.3 |  7.06
Comm    | 0.3141     | 0.83315    | 1.8184     |  54.9 | 18.41
Output  | 3.6001e-05 | 6.028e-05  | 0.00014687 |   0.0 |  0.00
Modify  | 0.29952    | 0.43877    | 0.49042    |  10.2 |  9.70
Other   |            | 0.02814    |            |       |  0.62

Nlocal:        1034.67 ave        1198 max         723 min
Histogram: 1 0 0 0 0 1 1 0 2 1
Nghost:        1042.83 ave        1254 max         862 min
Histogram: 2 0 0 1 0 0 1 1 0 1
Neighs:        16942.8 ave       20702 max       13673 min
Histogram: 1 0 0 1 2 1 0 0 0 1

Total # of neighbors = 101657
Ave neighs/atom = 16.375161
Ave special neighs/atom = 1.9793814
Neighbor list builds = 334
Dangerous builds = 0

if "${myDensity} > 1.0" then "jump SELF break"

next a
jump SELF loop
variable a loop 1000
change_box all x scale 0.95 y scale 0.95 z scale 0.95 remap
Changing box ...
  orthogonal box = (349.12780 335.92400 335.92400) to (850.87220 864.07600 864.07600)
  orthogonal box = (349.12780 349.12780 335.92400) to (850.87220 850.87220 864.07600)
  orthogonal box = (349.12780 349.12780 349.12780) to (850.87220 850.87220 850.87220)
run 8000
Per MPI rank memory allocation (min/avg/max) = 11.78 | 11.81 | 11.87 Mbytes
Step PotEng Temp Press KinEng Lx Ly Lz Pzz S/CPU Density 
 1134001    2791.1294    354.10467    19.791331    6551.6049     501.7444     501.7444     501.7444    20.071287            0 0.0091576644 
 1142001    712.80044    361.82267 0.0028067011    6694.4025     501.7444     501.7444     501.7444  -0.31062954    1613.7397 0.0091576644 
Loop time of 4.95755 on 6 procs for 8000 steps with 6208 atoms

Performance: 1394.237 ns/day, 0.017 hours/ns, 1613.700 timesteps/s
99.6% CPU use with 6 MPI tasks x no OpenMP threads

MPI task timing breakdown:
Section |  min time  |  avg time  |  max time  |%varavg| %total
---------------------------------------------------------------
Pair    | 2.3323     | 2.8564     | 3.6592     |  23.7 | 57.62
Bond    | 0.065231   | 0.090244   | 0.10829    |   4.3 |  1.82
Neigh   | 0.33971    | 0.34113    | 0.34283    |   0.2 |  6.88
Comm    | 0.30848    | 1.198      | 1.8367     |  41.5 | 24.17
Output  | 3.6955e-05 | 7.2519e-05 | 0.00016904 |   0.0 |  0.00
Modify  | 0.32072    | 0.43839    | 0.52667    |   9.2 |  8.84
Other   |            | 0.03333    |            |       |  0.67

Nlocal:        1034.67 ave        1326 max         746 min
Histogram: 1 0 0 1 1 1 1 0 0 1
Nghost:        1132.00 ave        1448 max         869 min
Histogram: 2 0 0 1 0 1 0 1 0 1
Neighs:        17357.3 ave       23032 max       13651 min
Histogram: 1 0 1 2 1 0 0 0 0 1

Total # of neighbors = 104144
Ave neighs/atom = 16.775773
Ave special neighs/atom = 1.9793814
Neighbor list builds = 335
Dangerous builds = 0

if "${myDensity} > 1.0" then "jump SELF break"

next a
jump SELF loop
variable a loop 1000
change_box all x scale 0.95 y scale 0.95 z scale 0.95 remap
Changing box ...
  orthogonal box = (361.67141 349.12780 349.12780) to (838.32859 850.87220 850.87220)
  orthogonal box = (361.67141 361.67141 349.12780) to (838.32859 838.32859 850.87220)
  orthogonal box = (361.67141 361.67141 361.67141) to (838.32859 838.32859 838.32859)
run 8000
Per MPI rank memory allocation (min/avg/max) = 11.78 | 11.81 | 11.87 Mbytes
Step PotEng Temp Press KinEng Lx Ly Lz Pzz S/CPU Density 
 1142001    2790.9238    361.82267    23.031212    6694.4025    476.65718    476.65718    476.65718    22.656287            0  0.010681049 
 1150001    698.79706    358.89673   0.31262668    6640.2671    476.65718    476.65718    476.65718   0.58555026    1637.0541  0.010681049 
Loop time of 4.88999 on 6 procs for 8000 steps with 6208 atoms

Performance: 1413.501 ns/day, 0.017 hours/ns, 1635.996 timesteps/s
99.7% CPU use with 6 MPI tasks x no OpenMP threads

MPI task timing breakdown:
Section |  min time  |  avg time  |  max time  |%varavg| %total
---------------------------------------------------------------
Pair    | 2.0483     | 2.7506     | 3.543      |  27.1 | 56.25
Bond    | 0.06617    | 0.090196   | 0.11465    |   4.9 |  1.84
Neigh   | 0.35217    | 0.35375    | 0.35543    |   0.2 |  7.23
Comm    | 0.3036     | 1.2126     | 2.0241     |  47.0 | 24.80
Output  | 3.6001e-05 | 0.00057654 | 0.0032079  |   0.0 |  0.01
Modify  | 0.32476    | 0.43822    | 0.55782    |  10.7 |  8.96
Other   |            | 0.044      |            |       |  0.90

Nlocal:        1034.67 ave        1316 max         754 min
Histogram: 1 0 0 0 3 0 0 1 0 1
Nghost:        1225.33 ave        1529 max         897 min
Histogram: 2 0 0 0 0 1 1 0 1 1
Neighs:        17384.8 ave       22482 max       13612 min
Histogram: 1 0 1 2 0 0 1 0 0 1

Total # of neighbors = 104309
Ave neighs/atom = 16.802352
Ave special neighs/atom = 1.9793814
Neighbor list builds = 334
Dangerous builds = 0

if "${myDensity} > 1.0" then "jump SELF break"

next a
jump SELF loop
variable a loop 1000
change_box all x scale 0.95 y scale 0.95 z scale 0.95 remap
Changing box ...
  orthogonal box = (373.58784 361.67141 361.67141) to (826.41216 838.32859 838.32859)
  orthogonal box = (373.58784 373.58784 361.67141) to (826.41216 826.41216 838.32859)
  orthogonal box = (373.58784 373.58784 373.58784) to (826.41216 826.41216 826.41216)
run 8000
Per MPI rank memory allocation (min/avg/max) = 11.78 | 11.82 | 11.87 Mbytes
Step PotEng Temp Press KinEng Lx Ly Lz Pzz S/CPU Density 
 1150001    2890.0488    358.89673    27.579452    6640.2671    452.82432    452.82432    452.82432    27.837915            0   0.01245785 
 1158001    677.12615    356.92326  -0.31559137    6603.7541    452.82432    452.82432    452.82432  -0.29120007    1583.8097   0.01245785 
Loop time of 5.05123 on 6 procs for 8000 steps with 6208 atoms

Performance: 1368.380 ns/day, 0.018 hours/ns, 1583.773 timesteps/s
99.7% CPU use with 6 MPI tasks x no OpenMP threads

MPI task timing breakdown:
Section |  min time  |  avg time  |  max time  |%varavg| %total
---------------------------------------------------------------
Pair    | 2.3466     | 2.8712     | 3.7375     |  27.3 | 56.84
Bond    | 0.073106   | 0.090149   | 0.112      |   4.0 |  1.78
Neigh   | 0.33959    | 0.34043    | 0.34102    |   0.1 |  6.74
Comm    | 0.30217    | 1.2731     | 1.8741     |  45.9 | 25.20
Output  | 3.8862e-05 | 6.9102e-05 | 0.00016212 |   0.0 |  0.00
Modify  | 0.35821    | 0.43792    | 0.54426    |   8.7 |  8.67
Other   |            | 0.0384     |            |       |  0.76

Nlocal:        1034.67 ave        1282 max         916 min
Histogram: 1 3 0 0 0 1 0 0 0 1
Nghost:        1314.17 ave        1573 max        1035 min
Histogram: 2 0 0 0 0 0 2 1 0 1
Neighs:        18100.7 ave       24419 max       14817 min
Histogram: 2 1 1 0 0 1 0 0 0 1

Total # of neighbors = 108604
Ave neighs/atom = 17.494201
Ave special neighs/atom = 1.9793814
Neighbor list builds = 322
Dangerous builds = 0

if "${myDensity} > 1.0" then "jump SELF break"

next a
jump SELF loop
variable a loop 1000
change_box all x scale 0.95 y scale 0.95 z scale 0.95 remap
Changing box ...
  orthogonal box = (384.90845 373.58784 373.58784) to (815.09155 826.41216 826.41216)
  orthogonal box = (384.90845 384.90845 373.58784) to (815.09155 815.09155 826.41216)
  orthogonal box = (384.90845 384.90845 384.90845) to (815.09155 815.09155 815.09155)
run 8000
Per MPI rank memory allocation (min/avg/max) = 11.78 | 11.82 | 11.87 Mbytes
Step PotEng Temp Press KinEng Lx Ly Lz Pzz S/CPU Density 
 1158001    2735.1633    356.92326    31.419922    6603.7541    430.18311    430.18311    430.18311     31.20525            0  0.014530223 
 1166001    610.65012    354.81386  -0.47096563    6564.7262    430.18311    430.18311    430.18311  -0.47444521    1615.2199  0.014530223 
Loop time of 4.95376 on 6 procs for 8000 steps with 6208 atoms

Performance: 1395.303 ns/day, 0.017 hours/ns, 1614.935 timesteps/s
99.7% CPU use with 6 MPI tasks x no OpenMP threads

MPI task timing breakdown:
Section |  min time  |  avg time  |  max time  |%varavg| %total
---------------------------------------------------------------
Pair    | 2.4851     | 2.8429     | 3.6253     |  23.3 | 57.39
Bond    | 0.078495   | 0.090241   | 0.11115    |   3.9 |  1.82
Neigh   | 0.34782    | 0.351      | 0.35279    |   0.3 |  7.09
Comm    | 0.30979    | 1.1931     | 1.6007     |  41.1 | 24.08
Output  | 4.0054e-05 | 0.00019757 | 0.00092101 |   0.0 |  0.00
Modify  | 0.38413    | 0.43828    | 0.54099    |   8.6 |  8.85
Other   |            | 0.03808    |            |       |  0.77

Nlocal:        1034.67 ave        1260 max         879 min
Histogram: 3 0 0 0 0 1 0 1 0 1
Nghost:        1362.17 ave        1709 max        1060 min
Histogram: 1 1 1 0 0 0 0 2 0 1
Neighs:        17534.8 ave       21766 max       14329 min
Histogram: 2 1 0 0 0 1 0 0 1 1

Total # of neighbors = 105209
Ave neighs/atom = 16.947326
Ave special neighs/atom = 1.9793814
Neighbor list builds = 331
Dangerous builds = 0

if "${myDensity} > 1.0" then "jump SELF break"

next a
jump SELF loop
variable a loop 1000
change_box all x scale 0.95 y scale 0.95 z scale 0.95 remap
Changing box ...
  orthogonal box = (395.66302 384.90845 384.90845) to (804.33698 815.09155 815.09155)
  orthogonal box = (395.66302 395.66302 384.90845) to (804.33698 804.33698 815.09155)
  orthogonal box = (395.66302 395.66302 395.66302) to (804.33698 804.33698 804.33698)
run 8000
Per MPI rank memory allocation (min/avg/max) = 11.78 | 11.82 | 11.87 Mbytes
Step PotEng Temp Press KinEng Lx Ly Lz Pzz S/CPU Density 
 1166001    2632.6154    354.81386    36.208609    6564.7262    408.67395    408.67395    408.67395    36.476627            0  0.016947337 
 1174001    652.10395     359.5333  -0.20739975    6652.0448    408.67395    408.67395    408.67395  -0.53039683     1679.723  0.016947337 
Loop time of 4.76279 on 6 procs for 8000 steps with 6208 atoms

Performance: 1451.251 ns/day, 0.017 hours/ns, 1679.688 timesteps/s
99.6% CPU use with 6 MPI tasks x no OpenMP threads

MPI task timing breakdown:
Section |  min time  |  avg time  |  max time  |%varavg| %total
---------------------------------------------------------------
Pair    | 2.228      | 2.9157     | 3.3448     |  25.7 | 61.22
Bond    | 0.072162   | 0.090384   | 0.10489    |   4.1 |  1.90
Neigh   | 0.33113    | 0.33435    | 0.33649    |   0.3 |  7.02
Comm    | 0.45229    | 0.94786    | 1.7085     |  50.6 | 19.90
Output  | 3.8147e-05 | 5.9525e-05 | 0.00012708 |   0.0 |  0.00
Modify  | 0.37214    | 0.44198    | 0.5101     |   8.1 |  9.28
Other   |            | 0.03241    |            |       |  0.68

Nlocal:        1034.67 ave        1186 max         789 min
Histogram: 1 0 0 0 1 1 0 0 1 2
Nghost:        1527.67 ave        1887 max        1256 min
Histogram: 1 2 0 0 0 1 1 0 0 1
Neighs:        18763.2 ave       22463 max       14741 min
Histogram: 1 0 1 1 0 0 1 0 0 2

Total # of neighbors = 112579
Ave neighs/atom = 18.134504
Ave special neighs/atom = 1.9793814
Neighbor list builds = 330
Dangerous builds = 0

if "${myDensity} > 1.0" then "jump SELF break"

next a
jump SELF loop
variable a loop 1000
change_box all x scale 0.95 y scale 0.95 z scale 0.95 remap
Changing box ...
  orthogonal box = (405.87987 395.66302 395.66302) to (794.12013 804.33698 804.33698)
  orthogonal box = (405.87987 405.87987 395.66302) to (794.12013 794.12013 804.33698)
  orthogonal box = (405.87987 405.87987 405.87987) to (794.12013 794.12013 794.12013)
run 8000
Per MPI rank memory allocation (min/avg/max) = 11.78 | 11.82 | 11.88 Mbytes
Step PotEng Temp Press KinEng Lx Ly Lz Pzz S/CPU Density 
 1174001    2741.1015     359.5333    43.036152    6652.0448    388.24025    388.24025    388.24025    43.097674            0   0.01976654 
 1182001     563.4975    359.27255   0.29762372    6647.2205    388.24025    388.24025    388.24025    0.6053245    1611.3598   0.01976654 
Loop time of 4.96632 on 6 procs for 8000 steps with 6208 atoms

Performance: 1391.776 ns/day, 0.017 hours/ns, 1610.852 timesteps/s
99.7% CPU use with 6 MPI tasks x no OpenMP threads

MPI task timing breakdown:
Section |  min time  |  avg time  |  max time  |%varavg| %total
---------------------------------------------------------------
Pair    | 2.0926     | 3.101      | 3.6344     |  28.6 | 62.44
Bond    | 0.064805   | 0.090286   | 0.10375    |   4.5 |  1.82
Neigh   | 0.35701    | 0.3591     | 0.3607     |   0.2 |  7.23
Comm    | 0.34667    | 0.94611    | 2.0825     |  58.6 | 19.05
Output  | 3.6001e-05 | 0.00030669 | 0.001596   |   0.0 |  0.01
Modify  | 0.31348    | 0.43798    | 0.50405    |   9.9 |  8.82
Other   |            | 0.03159    |            |       |  0.64

Nlocal:        1034.67 ave        1214 max         676 min
Histogram: 1 0 0 0 1 0 1 0 1 2
Nghost:        1623.83 ave        2082 max        1313 min
Histogram: 1 1 1 0 1 1 0 0 0 1
Neighs:        18567.2 ave       23771 max       11175 min
Histogram: 1 0 0 0 1 1 1 0 1 1

Total # of neighbors = 111403
Ave neighs/atom = 17.945071
Ave special neighs/atom = 1.9793814
Neighbor list builds = 337
Dangerous builds = 0

if "${myDensity} > 1.0" then "jump SELF break"

next a
jump SELF loop
variable a loop 1000
change_box all x scale 0.95 y scale 0.95 z scale 0.95 remap
Changing box ...
  orthogonal box = (415.58588 405.87987 405.87987) to (784.41412 794.12013 794.12013)
  orthogonal box = (415.58588 415.58588 405.87987) to (784.41412 784.41412 794.12013)
  orthogonal box = (415.58588 415.58588 415.58588) to (784.41412 784.41412 784.41412)
run 8000
Per MPI rank memory allocation (min/avg/max) = 11.78 | 11.82 | 11.88 Mbytes
Step PotEng Temp Press KinEng Lx Ly Lz Pzz S/CPU Density 
 1182001    2713.7528    359.27255    50.646039    6647.2205    368.82824    368.82824    368.82824    51.057958            0  0.023054719 
 1190001    739.67465    365.08472    0.5164638    6754.7565    368.82824    368.82824    368.82824   0.35785381    1609.3727  0.023054719 
Loop time of 4.971 on 6 procs for 8000 steps with 6208 atoms

Performance: 1390.464 ns/day, 0.017 hours/ns, 1609.334 timesteps/s
99.7% CPU use with 6 MPI tasks x no OpenMP threads

MPI task timing breakdown:
Section |  min time  |  avg time  |  max time  |%varavg| %total
---------------------------------------------------------------
Pair    | 1.8159     | 2.8795     | 3.5753     |  31.7 | 57.93
Bond    | 0.058014   | 0.090494   | 0.10697    |   5.3 |  1.82
Neigh   | 0.36177    | 0.36565    | 0.36933    |   0.4 |  7.36
Comm    | 0.38833    | 1.1612     | 2.3861     |  57.1 | 23.36
Output  | 3.8147e-05 | 6.8267e-05 | 0.00015497 |   0.0 |  0.00
Modify  | 0.27958    | 0.43783    | 0.52039    |  11.7 |  8.81
Other   |            | 0.03623    |            |       |  0.73

Nlocal:        1034.67 ave        1243 max         634 min
Histogram: 1 0 0 0 0 1 0 1 2 1
Nghost:        1786.67 ave        2247 max        1534 min
Histogram: 2 1 0 0 2 0 0 0 0 1
Neighs:        17720.0 ave       21961 max       10675 min
Histogram: 1 0 0 0 0 0 3 0 1 1

Total # of neighbors = 106320
Ave neighs/atom = 17.126289
Ave special neighs/atom = 1.9793814
Neighbor list builds = 335
Dangerous builds = 0

if "${myDensity} > 1.0" then "jump SELF break"

next a
jump SELF loop
variable a loop 1000
change_box all x scale 0.95 y scale 0.95 z scale 0.95 remap
Changing box ...
  orthogonal box = (424.80659 415.58588 415.58588) to (775.19341 784.41412 784.41412)
  orthogonal box = (424.80659 424.80659 415.58588) to (775.19341 775.19341 784.41412)
  orthogonal box = (424.80659 424.80659 424.80659) to (775.19341 775.19341 775.19341)
run 8000
Per MPI rank memory allocation (min/avg/max) = 11.79 | 11.82 | 11.88 Mbytes
Step PotEng Temp Press KinEng Lx Ly Lz Pzz S/CPU Density 
 1190001    2901.4892    365.08472     59.33306    6754.7565    350.38683    350.38683    350.38683    59.444778            0  0.026889889 
 1198001    643.20716    359.28276    1.1439451    6647.4094    350.38683    350.38683    350.38683  0.027818309    1559.0813  0.026889889 
Loop time of 5.13498 on 6 procs for 8000 steps with 6208 atoms

Performance: 1346.062 ns/day, 0.018 hours/ns, 1557.942 timesteps/s
99.7% CPU use with 6 MPI tasks x no OpenMP threads

MPI task timing breakdown:
Section |  min time  |  avg time  |  max time  |%varavg| %total
---------------------------------------------------------------
Pair    | 1.6626     | 2.9899     | 3.6042     |  37.3 | 58.23
Bond    | 0.056979   | 0.090504   | 0.10746    |   5.9 |  1.76
Neigh   | 0.3747     | 0.37824    | 0.3824     |   0.4 |  7.37
Comm    | 0.50578    | 1.1974     | 2.69       |  66.5 | 23.32
Output  | 4.1008e-05 | 0.0006729  | 0.0037811  |   0.0 |  0.01
Modify  | 0.27416    | 0.43762    | 0.51993    |  12.9 |  8.52
Other   |            | 0.04058    |            |       |  0.79

Nlocal:        1034.67 ave        1240 max         675 min
Histogram: 1 0 0 1 0 0 0 1 1 2
Nghost:        1798.67 ave        2197 max        1334 min
Histogram: 1 0 0 1 1 1 0 0 1 1
Neighs:        19101.7 ave       25083 max       10038 min
Histogram: 1 0 0 0 0 2 0 2 0 1

Total # of neighbors = 114610
Ave neighs/atom = 18.461662
Ave special neighs/atom = 1.9793814
Neighbor list builds = 335
Dangerous builds = 0

if "${myDensity} > 1.0" then "jump SELF break"

next a
jump SELF loop
variable a loop 1000
change_box all x scale 0.95 y scale 0.95 z scale 0.95 remap
Changing box ...
  orthogonal box = (433.56626 424.80659 424.80659) to (766.43374 775.19341 775.19341)
  orthogonal box = (433.56626 433.56626 424.80659) to (766.43374 766.43374 775.19341)
  orthogonal box = (433.56626 433.56626 433.56626) to (766.43374 766.43374 766.43374)
run 8000
Per MPI rank memory allocation (min/avg/max) = 11.79 | 11.82 | 11.88 Mbytes
Step PotEng Temp Press KinEng Lx Ly Lz Pzz S/CPU Density 
 1198001    2865.9178    359.28276    69.798509    6647.4094    332.86749    332.86749    332.86749    69.761353            0  0.031363043 
 1206001    677.34407    356.20979  -0.21402462    6590.5535    332.86749    332.86749    332.86749   -1.0901457    1497.2254  0.031363043 
Loop time of 5.34332 on 6 procs for 8000 steps with 6208 atoms

Performance: 1293.577 ns/day, 0.019 hours/ns, 1497.195 timesteps/s
99.7% CPU use with 6 MPI tasks x no OpenMP threads

MPI task timing breakdown:
Section |  min time  |  avg time  |  max time  |%varavg| %total
---------------------------------------------------------------
Pair    | 1.8179     | 3.0884     | 3.7732     |  37.7 | 57.80
Bond    | 0.059572   | 0.090641   | 0.10847    |   5.3 |  1.70
Neigh   | 0.38853    | 0.39137    | 0.395      |   0.3 |  7.32
Comm    | 0.52606    | 1.2936     | 2.7167     |  64.8 | 24.21
Output  | 0.002419   | 0.002561   | 0.0027828  |   0.2 |  0.05
Modify  | 0.28729    | 0.43799    | 0.52547    |  11.6 |  8.20
Other   |            | 0.03879    |            |       |  0.73

Nlocal:        1034.67 ave        1243 max         704 min
Histogram: 1 0 0 0 1 0 1 1 1 1
Nghost:        1937.83 ave        2372 max        1528 min
Histogram: 1 1 0 1 0 1 0 0 1 1
Neighs:        19555.3 ave       25852 max       11890 min
Histogram: 1 0 0 1 0 2 0 0 1 1

Total # of neighbors = 117332
Ave neighs/atom = 18.900129
Ave special neighs/atom = 1.9793814
Neighbor list builds = 326
Dangerous builds = 0

if "${myDensity} > 1.0" then "jump SELF break"

next a
jump SELF loop
variable a loop 1000
change_box all x scale 0.95 y scale 0.95 z scale 0.95 remap
Changing box ...
  orthogonal box = (441.88794 433.56626 433.56626) to (758.11206 766.43374 766.43374)
  orthogonal box = (441.88794 441.88794 433.56626) to (758.11206 758.11206 766.43374)
  orthogonal box = (441.88794 441.88794 441.88794) to (758.11206 758.11206 758.11206)
run 8000
Per MPI rank memory allocation (min/avg/max) = 11.80 | 11.83 | 11.88 Mbytes
Step PotEng Temp Press KinEng Lx Ly Lz Pzz S/CPU Density 
 1206001    2787.5663    356.20979    79.885544    6590.5535    316.22411    316.22411    316.22411    79.193706            0   0.03658031 
 1214001    589.86973    354.24139   0.59244488    6554.1345    316.22411    316.22411    316.22411   0.87830599    1352.5958   0.03658031 
Loop time of 5.91496 on 6 procs for 8000 steps with 6208 atoms

Performance: 1168.563 ns/day, 0.021 hours/ns, 1352.503 timesteps/s
99.2% CPU use with 6 MPI tasks x no OpenMP threads

MPI task timing breakdown:
Section |  min time  |  avg time  |  max time  |%varavg| %total
---------------------------------------------------------------
Pair    | 1.9564     | 3.2945     | 4.1708     |  42.9 | 55.70
Bond    | 0.062834   | 0.090726   | 0.11107    |   5.5 |  1.53
Neigh   | 0.4522     | 0.45475    | 0.45899    |   0.3 |  7.69
Comm    | 0.61451    | 1.5846     | 3.0614     |  68.3 | 26.79
Output  | 4.0054e-05 | 0.00012569 | 0.00046086 |   0.0 |  0.00
Modify  | 0.30606    | 0.44117    | 0.54078    |  12.2 |  7.46
Other   |            | 0.04908    |            |       |  0.83

Nlocal:        1034.67 ave        1334 max         727 min
Histogram: 1 1 0 0 1 0 1 0 1 1
Nghost:        2119.67 ave        2589 max        1751 min
Histogram: 2 0 0 0 2 0 1 0 0 1
Neighs:        20913.0 ave       29453 max       11509 min
Histogram: 1 1 0 0 0 1 1 1 0 1

Total # of neighbors = 125478
Ave neighs/atom = 20.212307
Ave special neighs/atom = 1.9793814
Neighbor list builds = 335
Dangerous builds = 0

if "${myDensity} > 1.0" then "jump SELF break"

next a
jump SELF loop
variable a loop 1000
change_box all x scale 0.95 y scale 0.95 z scale 0.95 remap
Changing box ...
  orthogonal box = (449.79355 441.88794 441.88794) to (750.20645 758.11206 758.11206)
  orthogonal box = (449.79355 449.79355 441.88794) to (750.20645 750.20645 758.11206)
  orthogonal box = (449.79355 449.79355 449.79355) to (750.20645 750.20645 750.20645)
run 8000
Per MPI rank memory allocation (min/avg/max) = 11.80 | 11.83 | 11.88 Mbytes
Step PotEng Temp Press KinEng Lx Ly Lz Pzz S/CPU Density 
 1214001    2741.4837    354.24139    93.405597    6554.1345    300.41291    300.41291    300.41291    93.833061            0  0.042665473 
 1222001    581.24279    361.22691    1.9784224    6683.3798    300.41291    300.41291    300.41291    3.5017406    1273.0174  0.042665473 
Loop time of 6.28436 on 6 procs for 8000 steps with 6208 atoms

Performance: 1099.873 ns/day, 0.022 hours/ns, 1273.001 timesteps/s
99.7% CPU use with 6 MPI tasks x no OpenMP threads

MPI task timing breakdown:
Section |  min time  |  avg time  |  max time  |%varavg| %total
---------------------------------------------------------------
Pair    | 2.4318     | 3.4554     | 4.5914     |  41.0 | 54.98
Bond    | 0.070217   | 0.090731   | 0.11619    |   5.4 |  1.44
Neigh   | 0.48918    | 0.49076    | 0.49275    |   0.2 |  7.81
Comm    | 0.50311    | 1.7585     | 2.8575     |  63.1 | 27.98
Output  | 3.4094e-05 | 6.4333e-05 | 0.00013113 |   0.0 |  0.00
Modify  | 0.33848    | 0.43807    | 0.56432    |  12.0 |  6.97
Other   |            | 0.05086    |            |       |  0.81

Nlocal:        1034.67 ave        1316 max         811 min
Histogram: 2 0 0 1 0 1 0 1 0 1
Nghost:        2289.33 ave        2504 max        2119 min
Histogram: 1 1 1 0 1 0 0 0 1 1
Neighs:        21929.5 ave       28918 max       13461 min
Histogram: 1 1 0 0 0 1 1 0 0 2

Total # of neighbors = 131577
Ave neighs/atom = 21.194749
Ave special neighs/atom = 1.9793814
Neighbor list builds = 335
Dangerous builds = 0

if "${myDensity} > 1.0" then "jump SELF break"

next a
jump SELF loop
variable a loop 1000
change_box all x scale 0.95 y scale 0.95 z scale 0.95 remap
Changing box ...
  orthogonal box = (457.30387 449.79355 449.79355) to (742.69613 750.20645 750.20645)
  orthogonal box = (457.30387 457.30387 449.79355) to (742.69613 742.69613 750.20645)
  orthogonal box = (457.30387 457.30387 457.30387) to (742.69613 742.69613 742.69613)
run 8000
Per MPI rank memory allocation (min/avg/max) = 11.80 | 11.83 | 11.88 Mbytes
Step PotEng Temp Press KinEng Lx Ly Lz Pzz S/CPU Density 
 1222001     2829.238    361.22691    111.80856    6683.3798    285.39226    285.39226    285.39226    113.67831            0  0.049762908 
 1230001    527.05919       356.27   -1.8604774    6591.6676    285.39226    285.39226    285.39226   -2.7999468    1231.1136  0.049762908 
Loop time of 6.49829 on 6 procs for 8000 steps with 6208 atoms

Performance: 1063.664 ns/day, 0.023 hours/ns, 1231.093 timesteps/s
99.7% CPU use with 6 MPI tasks x no OpenMP threads

MPI task timing breakdown:
Section |  min time  |  avg time  |  max time  |%varavg| %total
---------------------------------------------------------------
Pair    | 2.4588     | 3.6091     | 4.7575     |  44.0 | 55.54
Bond    | 0.071102   | 0.0909     | 0.11372    |   5.1 |  1.40
Neigh   | 0.50856    | 0.5098     | 0.51105    |   0.1 |  7.85
Comm    | 0.54416    | 1.799      | 3.0396     |  67.6 | 27.68
Output  | 3.8862e-05 | 7.5698e-05 | 0.00016499 |   0.0 |  0.00
Modify  | 0.34151    | 0.43824    | 0.55253    |  11.5 |  6.74
Other   |            | 0.05112    |            |       |  0.79

Nlocal:        1034.67 ave        1309 max         729 min
Histogram: 1 1 0 0 0 1 1 1 0 1
Nghost:        2561.33 ave        2846 max        2264 min
Histogram: 1 1 0 0 1 0 1 0 1 1
Neighs:        22677.0 ave       30331 max       13317 min
Histogram: 1 1 0 0 0 0 1 2 0 1

Total # of neighbors = 136062
Ave neighs/atom = 21.917204
Ave special neighs/atom = 1.9793814
Neighbor list builds = 333
Dangerous builds = 0

if "${myDensity} > 1.0" then "jump SELF break"

next a
jump SELF loop
variable a loop 1000
change_box all x scale 0.95 y scale 0.95 z scale 0.95 remap
Changing box ...
  orthogonal box = (464.43868 457.30387 457.30387) to (735.56132 742.69613 742.69613)
  orthogonal box = (464.43868 464.43868 457.30387) to (735.56132 735.56132 742.69613)
  orthogonal box = (464.43868 464.43868 464.43868) to (735.56132 735.56132 735.56132)
run 8000
Per MPI rank memory allocation (min/avg/max) = 11.80 | 11.84 | 11.89 Mbytes
Step PotEng Temp Press KinEng Lx Ly Lz Pzz S/CPU Density 
 1230001    2551.2997       356.27    124.72947    6591.6676    271.12265    271.12265    271.12265    122.40617            0  0.058041006 
 1238001    481.46276    353.09122  -0.60484313    6532.8542    271.12265    271.12265    271.12265   0.30245391    1212.3027  0.058041006 
Loop time of 6.60034 on 6 procs for 8000 steps with 6208 atoms

Performance: 1047.218 ns/day, 0.023 hours/ns, 1212.058 timesteps/s
99.7% CPU use with 6 MPI tasks x no OpenMP threads

MPI task timing breakdown:
Section |  min time  |  avg time  |  max time  |%varavg| %total
---------------------------------------------------------------
Pair    | 2.6003     | 3.8051     | 4.7037     |  44.6 | 57.65
Bond    | 0.070755   | 0.09122    | 0.10843    |   4.8 |  1.38
Neigh   | 0.53705    | 0.53865    | 0.54091    |   0.2 |  8.16
Comm    | 0.70004    | 1.6778     | 2.9822     |  72.0 | 25.42
Output  | 4.3154e-05 | 0.00027951 | 0.0013819  |   0.0 |  0.00
Modify  | 0.33859    | 0.4383     | 0.52272    |  10.6 |  6.64
Other   |            | 0.04902    |            |       |  0.74

Nlocal:        1034.67 ave        1327 max         806 min
Histogram: 2 0 0 1 1 0 0 1 0 1
Nghost:        2681.67 ave        3137 max        2303 min
Histogram: 1 1 0 2 0 0 0 0 1 1
Neighs:        23898.3 ave       30759 max       16255 min
Histogram: 1 1 0 1 0 0 0 1 0 2

Total # of neighbors = 143390
Ave neighs/atom = 23.097616
Ave special neighs/atom = 1.9793814
Neighbor list builds = 333
Dangerous builds = 0

if "${myDensity} > 1.0" then "jump SELF break"

next a
jump SELF loop
variable a loop 1000
change_box all x scale 0.95 y scale 0.95 z scale 0.95 remap
Changing box ...
  orthogonal box = (471.21674 464.43868 464.43868) to (728.78326 735.56132 735.56132)
  orthogonal box = (471.21674 471.21674 464.43868) to (728.78326 728.78326 735.56132)
  orthogonal box = (471.21674 471.21674 471.21674) to (728.78326 728.78326 728.78326)
run 8000
Per MPI rank memory allocation (min/avg/max) = 11.81 | 11.84 | 11.89 Mbytes
Step PotEng Temp Press KinEng Lx Ly Lz Pzz S/CPU Density 
 1238001    2590.7926    353.09122    147.83675    6532.8542    257.56652    257.56652    257.56652    152.77098            0  0.067696173 
 1246001    408.49724    360.54588   -1.7056345    6670.7794    257.56652    257.56652    257.56652   -3.7424049    1100.6965  0.067696173 
Loop time of 7.26872 on 6 procs for 8000 steps with 6208 atoms

Performance: 950.924 ns/day, 0.025 hours/ns, 1100.607 timesteps/s
99.6% CPU use with 6 MPI tasks x no OpenMP threads

MPI task timing breakdown:
Section |  min time  |  avg time  |  max time  |%varavg| %total
---------------------------------------------------------------
Pair    | 2.9933     | 3.9588     | 5.3966     |  43.1 | 54.46
Bond    | 0.073759   | 0.091419   | 0.12131    |   5.7 |  1.26
Neigh   | 0.62784    | 0.62966    | 0.63273    |   0.2 |  8.66
Comm    | 0.51371    | 2.0931     | 3.1501     |  64.7 | 28.80
Output  | 4.1962e-05 | 0.00015926 | 0.00064802 |   0.0 |  0.00
Modify  | 0.35298    | 0.43911    | 0.58357    |  12.5 |  6.04
Other   |            | 0.05645    |            |       |  0.78

Nlocal:        1034.67 ave        1405 max         842 min
Histogram: 2 2 0 0 0 0 1 0 0 1
Nghost:        2820.17 ave        3194 max        2337 min
Histogram: 1 0 1 0 0 2 0 0 0 2
Neighs:        26160.5 ave       38798 max       18023 min
Histogram: 2 0 0 2 0 0 1 0 0 1

Total # of neighbors = 156963
Ave neighs/atom = 25.283988
Ave special neighs/atom = 1.9793814
Neighbor list builds = 331
Dangerous builds = 0

if "${myDensity} > 1.0" then "jump SELF break"

next a
jump SELF loop
variable a loop 1000
change_box all x scale 0.95 y scale 0.95 z scale 0.95 remap
Changing box ...
  orthogonal box = (477.65590 471.21674 471.21674) to (722.34410 728.78326 728.78326)
  orthogonal box = (477.65590 477.65590 471.21674) to (722.34410 722.34410 728.78326)
  orthogonal box = (477.65590 477.65590 477.65590) to (722.34410 722.34410 722.34410)
run 8000
Per MPI rank memory allocation (min/avg/max) = 11.81 | 11.84 | 11.89 Mbytes
Step PotEng Temp Press KinEng Lx Ly Lz Pzz S/CPU Density 
 1246001    2485.7102    360.54588    172.73661    6670.7794    244.68819    244.68819    244.68819    168.03847            0  0.078957484 
 1254001    444.11635    359.18662  -0.83706117    6645.6306    244.68819    244.68819    244.68819   -1.6917957    976.72741  0.078957484 
Loop time of 8.19074 on 6 procs for 8000 steps with 6208 atoms

Performance: 843.880 ns/day, 0.028 hours/ns, 976.713 timesteps/s
99.6% CPU use with 6 MPI tasks x no OpenMP threads

MPI task timing breakdown:
Section |  min time  |  avg time  |  max time  |%varavg| %total
---------------------------------------------------------------
Pair    | 3.1535     | 4.1816     | 6.1872     |  47.2 | 51.05
Bond    | 0.078171   | 0.091733   | 0.12233    |   5.0 |  1.12
Neigh   | 0.69248    | 0.69459    | 0.69694    |   0.2 |  8.48
Comm    | 0.57477    | 2.726      | 3.7926     |  62.6 | 33.28
Output  | 4.077e-05  | 7.689e-05  | 0.0001719  |   0.0 |  0.00
Modify  | 0.37453    | 0.43863    | 0.58556    |  10.9 |  5.36
Other   |            | 0.05817    |            |       |  0.71

Nlocal:        1034.67 ave        1346 max         883 min
Histogram: 2 1 0 1 1 0 0 0 0 1
Nghost:        3153.33 ave        3743 max        2625 min
Histogram: 1 1 0 0 2 0 0 1 0 1
Neighs:        25772.7 ave       37281 max       19112 min
Histogram: 1 1 1 1 1 0 0 0 0 1

Total # of neighbors = 154636
Ave neighs/atom = 24.909149
Ave special neighs/atom = 1.9793814
Neighbor list builds = 326
Dangerous builds = 0

if "${myDensity} > 1.0" then "jump SELF break"

next a
jump SELF loop
variable a loop 1000
change_box all x scale 0.95 y scale 0.95 z scale 0.95 remap
Changing box ...
  orthogonal box = (483.77311 477.65590 477.65590) to (716.22689 722.34410 722.34410)
  orthogonal box = (483.77311 483.77311 477.65590) to (716.22689 716.22689 722.34410)
  orthogonal box = (483.77311 483.77311 483.77311) to (716.22689 716.22689 716.22689)
run 8000
Per MPI rank memory allocation (min/avg/max) = 11.81 | 11.84 | 11.90 Mbytes
Step PotEng Temp Press KinEng Lx Ly Lz Pzz S/CPU Density 
 1254001    2557.4044    359.18662     202.3957    6645.6306    232.45378    232.45378    232.45378    199.81756            0  0.092092123 
 1262001    459.12469    356.17435   -1.0508129    6589.8979    232.45378    232.45378    232.45378   0.31193013    1067.9646  0.092092123 
Loop time of 7.491 on 6 procs for 8000 steps with 6208 atoms

Performance: 922.708 ns/day, 0.026 hours/ns, 1067.949 timesteps/s
99.6% CPU use with 6 MPI tasks x no OpenMP threads

MPI task timing breakdown:
Section |  min time  |  avg time  |  max time  |%varavg| %total
---------------------------------------------------------------
Pair    | 3.378      | 4.2379     | 5.5554     |  33.3 | 56.57
Bond    | 0.077256   | 0.091564   | 0.11544    |   4.2 |  1.22
Neigh   | 0.65785    | 0.65956    | 0.66119    |   0.2 |  8.80
Comm    | 0.58062    | 2.0119     | 2.9043     |  51.5 | 26.86
Output  | 4.0054e-05 | 7.2479e-05 | 0.00016499 |   0.0 |  0.00
Modify  | 0.37118    | 0.43856    | 0.55504    |   9.2 |  5.85
Other   |            | 0.05148    |            |       |  0.69

Nlocal:        1034.67 ave        1275 max         857 min
Histogram: 1 2 0 0 1 0 0 1 0 1
Nghost:        3411.33 ave        3863 max        2974 min
Histogram: 1 0 1 0 1 1 0 1 0 1
Neighs:        26493.8 ave       33350 max       22184 min
Histogram: 1 1 1 0 1 1 0 0 0 1

Total # of neighbors = 158963
Ave neighs/atom = 25.606153
Ave special neighs/atom = 1.9793814
Neighbor list builds = 326
Dangerous builds = 0

if "${myDensity} > 1.0" then "jump SELF break"

next a
jump SELF loop
variable a loop 1000
change_box all x scale 0.95 y scale 0.95 z scale 0.95 remap
Changing box ...
  orthogonal box = (489.58445 483.77311 483.77311) to (710.41555 716.22689 716.22689)
  orthogonal box = (489.58445 489.58445 483.77311) to (710.41555 710.41555 716.22689)
  orthogonal box = (489.58445 489.58445 489.58445) to (710.41555 710.41555 710.41555)
run 8000
Per MPI rank memory allocation (min/avg/max) = 11.81 | 11.85 | 11.90 Mbytes
Step PotEng Temp Press KinEng Lx Ly Lz Pzz S/CPU Density 
 1262001    2567.3553    356.17435    235.16709    6589.8979    220.83109    220.83109    220.83109    236.62872            0   0.10741172 
 1270001    448.00309    360.60365  0.082244375    6671.8482    220.83109    220.83109    220.83109   -1.9371646    1088.4761   0.10741172 
Loop time of 7.35193 on 6 procs for 8000 steps with 6208 atoms

Performance: 940.162 ns/day, 0.026 hours/ns, 1088.150 timesteps/s
99.6% CPU use with 6 MPI tasks x no OpenMP threads

MPI task timing breakdown:
Section |  min time  |  avg time  |  max time  |%varavg| %total
---------------------------------------------------------------
Pair    | 3.8194     | 4.3275     | 5.389      |  26.2 | 58.86
Bond    | 0.075523   | 0.091846   | 0.10936    |   4.1 |  1.25
Neigh   | 0.62271    | 0.62396    | 0.62627    |   0.2 |  8.49
Comm    | 0.68202    | 1.8186     | 2.4066     |  44.2 | 24.74
Output  | 3.9101e-05 | 0.00042208 | 0.0022578  |   0.0 |  0.01
Modify  | 0.36246    | 0.43902    | 0.51838    |   8.8 |  5.97
Other   |            | 0.05057    |            |       |  0.69

Nlocal:        1034.67 ave        1319 max         875 min
Histogram: 2 1 1 0 0 0 0 1 0 1
Nghost:        3580.83 ave        3957 max        3385 min
Histogram: 1 1 2 0 1 0 0 0 0 1
Neighs:        27949.7 ave       35398 max       21763 min
Histogram: 1 0 2 1 0 0 0 0 1 1

Total # of neighbors = 167698
Ave neighs/atom = 27.013209
Ave special neighs/atom = 1.9793814
Neighbor list builds = 331
Dangerous builds = 0

if "${myDensity} > 1.0" then "jump SELF break"

next a
jump SELF loop
variable a loop 1000
change_box all x scale 0.95 y scale 0.95 z scale 0.95 remap
Changing box ...
  orthogonal box = (495.10523 489.58445 489.58445) to (704.89477 710.41555 710.41555)
  orthogonal box = (495.10523 495.10523 489.58445) to (704.89477 704.89477 710.41555)
  orthogonal box = (495.10523 495.10523 495.10523) to (704.89477 704.89477 704.89477)
run 8000
Per MPI rank memory allocation (min/avg/max) = 11.82 | 11.85 | 11.90 Mbytes
Step PotEng Temp Press KinEng Lx Ly Lz Pzz S/CPU Density 
 1270001    2595.6807    360.60365    277.60232    6671.8482    209.78954    209.78954    209.78954    278.24251            0   0.12527974 
 1278001    367.99951    361.16016 -0.065743684    6682.1448    209.78954    209.78954    209.78954   -0.1935764    1030.0118   0.12527974 
Loop time of 7.76882 on 6 procs for 8000 steps with 6208 atoms

Performance: 889.711 ns/day, 0.027 hours/ns, 1029.758 timesteps/s
99.6% CPU use with 6 MPI tasks x no OpenMP threads

MPI task timing breakdown:
Section |  min time  |  avg time  |  max time  |%varavg| %total
---------------------------------------------------------------
Pair    | 3.8658     | 4.681      | 5.5529     |  29.1 | 60.25
Bond    | 0.071885   | 0.092015   | 0.11419    |   4.9 |  1.18
Neigh   | 0.69155    | 0.69313    | 0.69475    |   0.1 |  8.92
Comm    | 0.84382    | 1.8078     | 2.7157     |  51.5 | 23.27
Output  | 4.0054e-05 | 0.00037897 | 0.0019779  |   0.0 |  0.00
Modify  | 0.34549    | 0.43917    | 0.5385     |  10.4 |  5.65
Other   |            | 0.0554     |            |       |  0.71

Nlocal:        1034.67 ave        1322 max         789 min
Histogram: 2 0 0 2 0 0 0 0 0 2
Nghost:        3932.33 ave        4278 max        3785 min
Histogram: 2 2 0 0 1 0 0 0 0 1
Neighs:        30545.7 ave       37392 max       23401 min
Histogram: 2 0 0 0 1 0 1 0 1 1

Total # of neighbors = 183274
Ave neighs/atom = 29.522229
Ave special neighs/atom = 1.9793814
Neighbor list builds = 335
Dangerous builds = 0

if "${myDensity} > 1.0" then "jump SELF break"

next a
jump SELF loop
variable a loop 1000
change_box all x scale 0.95 y scale 0.95 z scale 0.95 remap
Changing box ...
  orthogonal box = (500.34997 495.10523 495.10523) to (699.65003 704.89477 704.89477)
  orthogonal box = (500.34997 500.34997 495.10523) to (699.65003 699.65003 704.89477)
  orthogonal box = (500.34997 500.34997 500.34997) to (699.65003 699.65003 699.65003)
run 8000
Per MPI rank memory allocation (min/avg/max) = 11.82 | 11.85 | 11.90 Mbytes
Step PotEng Temp Press KinEng Lx Ly Lz Pzz S/CPU Density 
 1278001    2481.5802    361.16016    319.95089    6682.1448    199.30006    199.30006    199.30006    318.82331            0   0.14612013 
 1286001    310.83946    364.30742    1.9997534     6740.375    199.30006    199.30006    199.30006   -1.4742397    866.48826   0.14612013 
Loop time of 9.2346 on 6 procs for 8000 steps with 6208 atoms

Performance: 748.490 ns/day, 0.032 hours/ns, 866.307 timesteps/s
99.5% CPU use with 6 MPI tasks x no OpenMP threads

MPI task timing breakdown:
Section |  min time  |  avg time  |  max time  |%varavg| %total
---------------------------------------------------------------
Pair    | 3.3514     | 5.0704     | 6.498      |  49.3 | 54.91
Bond    | 0.064649   | 0.092356   | 0.11999    |   6.8 |  1.00
Neigh   | 0.86943    | 0.87141    | 0.87391    |   0.1 |  9.44
Comm    | 1.1382     | 2.6936     | 4.5446     |  73.3 | 29.17
Output  | 4.3869e-05 | 0.00039359 | 0.002012   |   0.0 |  0.00
Modify  | 0.30967    | 0.43903    | 0.56851    |  14.5 |  4.75
Other   |            | 0.06739    |            |       |  0.73

Nlocal:        1034.67 ave        1478 max         627 min
Histogram: 1 0 1 1 0 1 0 1 0 1
Nghost:        4119.17 ave        4263 max        3961 min
Histogram: 1 0 1 0 1 0 1 1 0 1
Neighs:        32728.7 ave       48597 max       17997 min
Histogram: 1 0 1 1 0 1 1 0 0 1

Total # of neighbors = 196372
Ave neighs/atom = 31.632088
Ave special neighs/atom = 1.9793814
Neighbor list builds = 337
Dangerous builds = 0

if "${myDensity} > 1.0" then "jump SELF break"

next a
jump SELF loop
variable a loop 1000
change_box all x scale 0.95 y scale 0.95 z scale 0.95 remap
Changing box ...
  orthogonal box = (505.33247 500.34997 500.34997) to (694.66753 699.65003 699.65003)
  orthogonal box = (505.33247 505.33247 500.34997) to (694.66753 694.66753 699.65003)
  orthogonal box = (505.33247 505.33247 505.33247) to (694.66753 694.66753 694.66753)
run 8000
Per MPI rank memory allocation (min/avg/max) = 11.83 | 11.86 | 11.91 Mbytes
Step PotEng Temp Press KinEng Lx Ly Lz Pzz S/CPU Density 
 1286001    2503.0964    364.30742    382.80082     6740.375    189.33506    189.33506    189.33506    378.31754            0   0.17042732 
 1294001    225.49983     359.6401   -0.7013569    6654.0209    189.33506    189.33506    189.33506    -1.190303    799.37137   0.17042732 
Loop time of 10.009 on 6 procs for 8000 steps with 6208 atoms

Performance: 690.578 ns/day, 0.035 hours/ns, 799.280 timesteps/s
99.6% CPU use with 6 MPI tasks x no OpenMP threads

MPI task timing breakdown:
Section |  min time  |  avg time  |  max time  |%varavg| %total
---------------------------------------------------------------
Pair    | 2.9458     | 5.4006     | 7.2851     |  68.7 | 53.96
Bond    | 0.055328   | 0.093362   | 0.12674    |   8.0 |  0.93
Neigh   | 0.92702    | 0.92906    | 0.93235    |   0.2 |  9.28
Comm    | 1.0511     | 3.0734     | 5.6985     |  97.1 | 30.71
Output  | 3.8147e-05 | 0.00024958 | 0.001224   |   0.0 |  0.00
Modify  | 0.26358    | 0.4397     | 0.58607    |  16.8 |  4.39
Other   |            | 0.07263    |            |       |  0.73

Nlocal:        1034.67 ave        1351 max         636 min
Histogram: 2 0 0 0 0 1 0 0 2 1
Nghost:        4496.17 ave        4705 max        4294 min
Histogram: 1 0 1 1 0 1 1 0 0 1
Neighs:        34194.0 ave       44209 max       18194 min
Histogram: 1 1 0 0 0 1 0 0 0 3

Total # of neighbors = 205164
Ave neighs/atom = 33.048325
Ave special neighs/atom = 1.9793814
Neighbor list builds = 335
Dangerous builds = 0

if "${myDensity} > 1.0" then "jump SELF break"

next a
jump SELF loop
variable a loop 1000
change_box all x scale 0.95 y scale 0.95 z scale 0.95 remap
Changing box ...
  orthogonal box = (510.06585 505.33247 505.33247) to (689.93415 694.66753 694.66753)
  orthogonal box = (510.06585 510.06585 505.33247) to (689.93415 689.93415 694.66753)
  orthogonal box = (510.06585 510.06585 510.06585) to (689.93415 689.93415 689.93415)
run 8000
Per MPI rank memory allocation (min/avg/max) = 11.83 | 11.86 | 11.91 Mbytes
Step PotEng Temp Press KinEng Lx Ly Lz Pzz S/CPU Density 
 1294001     2394.244     359.6401    445.30402    6654.0209     179.8683     179.8683     179.8683    449.12809            0   0.19877804 
 1302001    216.07387    360.13363   -3.6022381    6663.1522     179.8683     179.8683     179.8683   -6.6386031    723.94226   0.19877804 
Loop time of 11.0528 on 6 procs for 8000 steps with 6208 atoms

Performance: 625.361 ns/day, 0.038 hours/ns, 723.797 timesteps/s
99.6% CPU use with 6 MPI tasks x no OpenMP threads

MPI task timing breakdown:
Section |  min time  |  avg time  |  max time  |%varavg| %total
---------------------------------------------------------------
Pair    | 2.6681     | 5.7068     | 8.1216     |  93.7 | 51.63
Bond    | 0.054174   | 0.09326    | 0.12367    |   9.6 |  0.84
Neigh   | 1.0446     | 1.0459     | 1.0491     |   0.2 |  9.46
Comm    | 1.145      | 3.6882     | 6.9022     | 123.4 | 33.37
Output  | 0.0024228  | 0.0029825  | 0.0050311  |   1.7 |  0.03
Modify  | 0.25579    | 0.43966    | 0.58067    |  20.4 |  3.98
Other   |            | 0.07596    |            |       |  0.69

Nlocal:        1034.67 ave        1464 max         607 min
Histogram: 2 0 0 0 1 0 1 0 1 1
Nghost:        4958.67 ave        5181 max        4765 min
Histogram: 2 0 0 0 1 1 0 1 0 1
Neighs:        37397.8 ave       56776 max       15722 min
Histogram: 2 0 0 0 1 0 1 0 0 2

Total # of neighbors = 224387
Ave neighs/atom = 36.144813
Ave special neighs/atom = 1.9793814
Neighbor list builds = 331
Dangerous builds = 0

if "${myDensity} > 1.0" then "jump SELF break"

next a
jump SELF loop
variable a loop 1000
change_box all x scale 0.95 y scale 0.95 z scale 0.95 remap
Changing box ...
  orthogonal box = (514.56256 510.06585 510.06585) to (685.43744 689.93415 689.93415)
  orthogonal box = (514.56256 514.56256 510.06585) to (685.43744 685.43744 689.93415)
  orthogonal box = (514.56256 514.56256 514.56256) to (685.43744 685.43744 685.43744)
run 8000
Per MPI rank memory allocation (min/avg/max) = 11.84 | 11.87 | 11.92 Mbytes
Step PotEng Temp Press KinEng Lx Ly Lz Pzz S/CPU Density 
 1302001    2348.4482    360.13363    517.19925    6663.1522    170.87489    170.87489    170.87489    509.23947            0   0.23184492 
 1310001    77.659731      361.874    3.7606206    6695.3522    170.87489    170.87489    170.87489    2.5899298    643.75545   0.23184492 
Loop time of 12.4313 on 6 procs for 8000 steps with 6208 atoms

Performance: 556.015 ns/day, 0.043 hours/ns, 643.536 timesteps/s
99.5% CPU use with 6 MPI tasks x no OpenMP threads

MPI task timing breakdown:
Section |  min time  |  avg time  |  max time  |%varavg| %total
---------------------------------------------------------------
Pair    | 3.0546     | 6.2918     | 9.1169     |  97.6 | 50.61
Bond    | 0.057851   | 0.093717   | 0.12616    |   8.7 |  0.75
Neigh   | 1.1949     | 1.1967     | 1.1995     |   0.1 |  9.63
Comm    | 1.3929     | 4.3287     | 7.7118     | 123.3 | 34.82
Output  | 3.9101e-05 | 0.00076441 | 0.004313   |   0.0 |  0.01
Modify  | 0.27169    | 0.44087    | 0.58772    |  18.5 |  3.55
Other   |            | 0.07877    |            |       |  0.63

Nlocal:        1034.67 ave        1322 max         608 min
Histogram: 1 1 0 0 0 0 1 1 0 2
Nghost:        5519.83 ave        5692 max        5227 min
Histogram: 1 0 0 0 1 1 0 0 2 1
Neighs:        40032.8 ave       58979 max       18950 min
Histogram: 2 0 0 0 0 1 0 1 1 1

Total # of neighbors = 240197
Ave neighs/atom = 38.691527
Ave special neighs/atom = 1.9793814
Neighbor list builds = 331
Dangerous builds = 0

if "${myDensity} > 1.0" then "jump SELF break"

next a
jump SELF loop
variable a loop 1000
change_box all x scale 0.95 y scale 0.95 z scale 0.95 remap
Changing box ...
  orthogonal box = (518.83443 514.56256 514.56256) to (681.16557 685.43744 685.43744)
  orthogonal box = (518.83443 518.83443 514.56256) to (681.16557 681.16557 685.43744)
  orthogonal box = (518.83443 518.83443 518.83443) to (681.16557 681.16557 681.16557)
run 8000
Per MPI rank memory allocation (min/avg/max) = 11.84 | 11.87 | 11.93 Mbytes
Step PotEng Temp Press KinEng Lx Ly Lz Pzz S/CPU Density 
 1310001    2296.2648      361.874    611.96948    6695.3522    162.33115    162.33115    162.33115    595.59937            0   0.27041251 
 1318001    87.655248    354.94915    2.4037584    6567.2295    162.33115    162.33115    162.33115    4.7409999    635.33213   0.27041251 
Loop time of 12.5919 on 6 procs for 8000 steps with 6208 atoms

Performance: 548.922 ns/day, 0.044 hours/ns, 635.327 timesteps/s
99.5% CPU use with 6 MPI tasks x no OpenMP threads

MPI task timing breakdown:
Section |  min time  |  avg time  |  max time  |%varavg| %total
---------------------------------------------------------------
Pair    | 3.7144     | 6.5302     | 9.3617     |  82.7 | 51.86
Bond    | 0.061478   | 0.095225   | 0.12561    |   7.0 |  0.76
Neigh   | 1.1657     | 1.1677     | 1.1703     |   0.2 |  9.27
Comm    | 1.3254     | 4.2771     | 7.2437     | 106.7 | 33.97
Output  | 3.9101e-05 | 8.2016e-05 | 0.00019383 |   0.0 |  0.00
Modify  | 0.28477    | 0.44132    | 0.57249    |  14.7 |  3.50
Other   |            | 0.08033    |            |       |  0.64

Nlocal:        1034.67 ave        1412 max         658 min
Histogram: 1 1 0 0 0 1 2 0 0 1
Nghost:        6249.17 ave        6406 max        5998 min
Histogram: 1 0 0 0 2 0 0 0 1 2
Neighs:        41235.0 ave       62180 max       22348 min
Histogram: 2 0 0 0 1 0 2 0 0 1

Total # of neighbors = 247410
Ave neighs/atom = 39.853415
Ave special neighs/atom = 1.9793814
Neighbor list builds = 325
Dangerous builds = 0

if "${myDensity} > 1.0" then "jump SELF break"

next a
jump SELF loop
variable a loop 1000
change_box all x scale 0.95 y scale 0.95 z scale 0.95 remap
Changing box ...
  orthogonal box = (522.89271 518.83443 518.83443) to (677.10729 681.16557 681.16557)
  orthogonal box = (522.89271 522.89271 518.83443) to (677.10729 677.10729 681.16557)
  orthogonal box = (522.89271 522.89271 522.89271) to (677.10729 677.10729 677.10729)
run 8000
Per MPI rank memory allocation (min/avg/max) = 11.85 | 11.88 | 11.94 Mbytes
Step PotEng Temp Press KinEng Lx Ly Lz Pzz S/CPU Density 
 1318001    2299.7933    354.94915    711.30327    6567.2295    154.21459    154.21459    154.21459    712.65026            0   0.31539584 
 1326001   -161.07733    359.54801    8.4421529    6652.3169    154.21459    154.21459    154.21459    3.7706812    587.52008   0.31539584 
Loop time of 13.6184 on 6 procs for 8000 steps with 6208 atoms

Performance: 507.547 ns/day, 0.047 hours/ns, 587.439 timesteps/s
98.6% CPU use with 6 MPI tasks x no OpenMP threads

MPI task timing breakdown:
Section |  min time  |  avg time  |  max time  |%varavg| %total
---------------------------------------------------------------
Pair    | 4.2785     | 7.2275     | 9.8809     |  79.5 | 53.07
Bond    | 0.062781   | 0.095026   | 0.11656    |   6.6 |  0.70
Neigh   | 1.3016     | 1.3046     | 1.3087     |   0.3 |  9.58
Comm    | 1.7312     | 4.4302     | 7.5184     | 104.8 | 32.53
Output  | 4.6015e-05 | 0.00037583 | 0.0019519  |   0.0 |  0.00
Modify  | 0.28608    | 0.44227    | 0.53849    |  14.3 |  3.25
Other   |            | 0.1185     |            |       |  0.87

Nlocal:        1034.67 ave        1295 max         612 min
Histogram: 1 0 0 1 0 0 1 0 1 2
Nghost:        6777.33 ave        6974 max        6533 min
Histogram: 2 0 0 0 0 1 0 0 1 2
Neighs:        46148.0 ave       61270 max       26032 min
Histogram: 1 1 0 0 1 0 0 0 1 2

Total # of neighbors = 276888
Ave neighs/atom = 44.601804
Ave special neighs/atom = 1.9793814
Neighbor list builds = 334
Dangerous builds = 0

if "${myDensity} > 1.0" then "jump SELF break"

next a
jump SELF loop
variable a loop 1000
change_box all x scale 0.95 y scale 0.95 z scale 0.95 remap
Changing box ...
  orthogonal box = (526.74807 522.89271 522.89271) to (673.25193 677.10729 677.10729)
  orthogonal box = (526.74807 526.74807 522.89271) to (673.25193 673.25193 677.10729)
  orthogonal box = (526.74807 526.74807 526.74807) to (673.25193 673.25193 673.25193)
run 8000
Per MPI rank memory allocation (min/avg/max) = 11.86 | 11.89 | 11.94 Mbytes
Step PotEng Temp Press KinEng Lx Ly Lz Pzz S/CPU Density 
 1326001    2112.0293    359.54801    844.57861    6652.3169    146.50386    146.50386    146.50386    847.49125            0   0.36786218 
 1334001   -119.58839     346.0153  -0.16046114    6401.9363    146.50386    146.50386    146.50386    2.7877497    564.98807   0.36786218 
Loop time of 14.1605 on 6 procs for 8000 steps with 6208 atoms

Performance: 488.118 ns/day, 0.049 hours/ns, 564.951 timesteps/s
98.3% CPU use with 6 MPI tasks x no OpenMP threads

MPI task timing breakdown:
Section |  min time  |  avg time  |  max time  |%varavg| %total
---------------------------------------------------------------
Pair    | 4.4861     | 7.7882     | 10.215     |  70.6 | 55.00
Bond    | 0.069725   | 0.095273   | 0.11307    |   5.6 |  0.67
Neigh   | 1.3509     | 1.3542     | 1.3587     |   0.3 |  9.56
Comm    | 1.9093     | 4.348      | 7.7348     |  96.7 | 30.71
Output  | 4.1008e-05 | 0.00020885 | 0.00098515 |   0.0 |  0.00
Modify  | 0.32995    | 0.44227    | 0.52178    |  11.9 |  3.12
Other   |            | 0.1324     |            |       |  0.93

Nlocal:        1034.67 ave        1213 max         772 min
Histogram: 1 1 0 0 0 0 1 1 0 2
Nghost:        7386.50 ave        7623 max        7200 min
Histogram: 2 0 1 0 1 0 0 0 1 1
Neighs:        48621.0 ave       60161 max       28769 min
Histogram: 1 0 0 1 0 0 0 2 0 2

Total # of neighbors = 291726
Ave neighs/atom = 46.991946
Ave special neighs/atom = 1.9793814
Neighbor list builds = 333
Dangerous builds = 0

if "${myDensity} > 1.0" then "jump SELF break"

next a
jump SELF loop
variable a loop 1000
change_box all x scale 0.95 y scale 0.95 z scale 0.95 remap
Changing box ...
  orthogonal box = (530.41067 526.74807 526.74807) to (669.58933 673.25193 673.25193)
  orthogonal box = (530.41067 530.41067 526.74807) to (669.58933 669.58933 673.25193)
  orthogonal box = (530.41067 530.41067 530.41067) to (669.58933 669.58933 669.58933)
run 8000
Per MPI rank memory allocation (min/avg/max) = 11.87 | 11.90 | 11.95 Mbytes
Step PotEng Temp Press KinEng Lx Ly Lz Pzz S/CPU Density 
 1334001    2112.2407     346.0153     974.3109    6401.9363    139.17867    139.17867    139.17867    979.32576            0   0.42905634 
 1342001   -313.51777    352.21571    1.3855153    6516.6555    139.17867    139.17867    139.17867    3.0184359    579.29389   0.42905634 
Loop time of 13.8123 on 6 procs for 8000 steps with 6208 atoms

Performance: 500.424 ns/day, 0.048 hours/ns, 579.195 timesteps/s
97.3% CPU use with 6 MPI tasks x no OpenMP threads

MPI task timing breakdown:
Section |  min time  |  avg time  |  max time  |%varavg| %total
---------------------------------------------------------------
Pair    | 5.8246     | 8.4758     | 9.8564     |  49.3 | 61.36
Bond    | 0.078616   | 0.097932   | 0.10931    |   3.8 |  0.71
Neigh   | 1.3227     | 1.3245     | 1.328      |   0.2 |  9.59
Comm    | 1.8772     | 3.2987     | 6.0037     |  81.1 | 23.88
Output  | 4.5061e-05 | 0.00044401 | 0.0024018  |   0.0 |  0.00
Modify  | 0.3611     | 0.44313    | 0.49889    |   7.7 |  3.21
Other   |            | 0.1718     |            |       |  1.24

Nlocal:        1034.67 ave        1113 max         897 min
Histogram: 1 0 0 0 0 0 3 0 1 1
Nghost:        7949.00 ave        8075 max        7811 min
Histogram: 2 0 0 0 0 1 1 0 1 1
Neighs:        53858.5 ave       59349 max       40481 min
Histogram: 1 0 0 0 0 0 2 0 0 3

Total # of neighbors = 323151
Ave neighs/atom = 52.053963
Ave special neighs/atom = 1.9793814
Neighbor list builds = 325
Dangerous builds = 0

if "${myDensity} > 1.0" then "jump SELF break"

next a
jump SELF loop
variable a loop 1000
change_box all x scale 0.95 y scale 0.95 z scale 0.95 remap
Changing box ...
  orthogonal box = (533.89013 530.41067 530.41067) to (666.10987 669.58933 669.58933)
  orthogonal box = (533.89013 533.89013 530.41067) to (666.10987 666.10987 669.58933)
  orthogonal box = (533.89013 533.89013 533.89013) to (666.10987 666.10987 666.10987)
run 8000
Per MPI rank memory allocation (min/avg/max) = 11.88 | 11.91 | 11.95 Mbytes
Step PotEng Temp Press KinEng Lx Ly Lz Pzz S/CPU Density 
 1342001    1923.9514    352.21571    1142.4651    6516.6555    132.21973    132.21973    132.21973      1127.44            0    0.5004302 
 1350001   -369.63603     357.6503    12.888271    6617.2057    132.21973    132.21973    132.21973    20.861403    542.12497    0.5004302 
Loop time of 14.7581 on 6 procs for 8000 steps with 6208 atoms

Performance: 468.354 ns/day, 0.051 hours/ns, 542.076 timesteps/s
96.1% CPU use with 6 MPI tasks x no OpenMP threads

MPI task timing breakdown:
Section |  min time  |  avg time  |  max time  |%varavg| %total
---------------------------------------------------------------
Pair    | 7.9957     | 9.462      | 11.051     |  37.9 | 64.11
Bond    | 0.088772   | 0.09933    | 0.10988    |   2.3 |  0.67
Neigh   | 1.3013     | 1.3024     | 1.3041     |   0.1 |  8.83
Comm    | 1.6352     | 3.2493     | 4.7562     |  66.0 | 22.02
Output  | 4.3869e-05 | 0.00027394 | 0.0013549  |   0.0 |  0.00
Modify  | 0.39932    | 0.44447    | 0.48851    |   4.4 |  3.01
Other   |            | 0.2002     |            |       |  1.36

Nlocal:        1034.67 ave        1137 max         933 min
Histogram: 2 0 1 0 0 0 0 1 0 2
Nghost:        8579.17 ave        8708 max        8439 min
Histogram: 1 0 2 0 0 0 0 1 1 1
Neighs:        59548.5 ave       70772 max       48846 min
Histogram: 1 2 0 0 0 0 0 0 2 1

Total # of neighbors = 357291
Ave neighs/atom = 57.553318
Ave special neighs/atom = 1.9793814
Neighbor list builds = 327
Dangerous builds = 0

if "${myDensity} > 1.0" then "jump SELF break"

next a
jump SELF loop
variable a loop 1000
change_box all x scale 0.95 y scale 0.95 z scale 0.95 remap
Changing box ...
  orthogonal box = (537.19563 533.89013 533.89013) to (662.80437 666.10987 666.10987)
  orthogonal box = (537.19563 537.19563 533.89013) to (662.80437 662.80437 666.10987)
  orthogonal box = (537.19563 537.19563 537.19563) to (662.80437 662.80437 662.80437)
run 8000
Per MPI rank memory allocation (min/avg/max) = 11.88 | 11.91 | 11.96 Mbytes
Step PotEng Temp Press KinEng Lx Ly Lz Pzz S/CPU Density 
 1350001    1928.1542     357.6503    1352.7896    6617.2057    125.60875    125.60875    125.60875    1343.9504            0   0.58367716 
 1358001   -619.22576    349.71984    16.491328    6470.4773    125.60875    125.60875    125.60875    3.0455255    510.20762   0.58367716 
Loop time of 15.6811 on 6 procs for 8000 steps with 6208 atoms

Performance: 440.786 ns/day, 0.054 hours/ns, 510.169 timesteps/s
96.0% CPU use with 6 MPI tasks x no OpenMP threads

MPI task timing breakdown:
Section |  min time  |  avg time  |  max time  |%varavg| %total
---------------------------------------------------------------
Pair    | 9.6623     | 10.649     | 11.725     |  19.5 | 67.91
Bond    | 0.092604   | 0.097829   | 0.10845    |   1.6 |  0.62
Neigh   | 1.4148     | 1.4159     | 1.417      |   0.1 |  9.03
Comm    | 1.7672     | 2.8557     | 3.8789     |  38.6 | 18.21
Output  | 4.3154e-05 | 0.00024088 | 0.001209   |   0.0 |  0.00
Modify  | 0.42793    | 0.44475    | 0.46991    |   2.1 |  2.84
Other   |            | 0.2178     |            |       |  1.39

Nlocal:        1034.67 ave        1100 max         991 min
Histogram: 1 1 1 0 1 1 0 0 0 1
Nghost:        9537.83 ave        9638 max        9492 min
Histogram: 2 2 0 0 0 1 0 0 0 1
Neighs:        67664.5 ave       73767 max       63382 min
Histogram: 1 1 1 0 1 1 0 0 0 1

Total # of neighbors = 405987
Ave neighs/atom = 65.397390
Ave special neighs/atom = 1.9793814
Neighbor list builds = 328
Dangerous builds = 0

if "${myDensity} > 1.0" then "jump SELF break"

next a
jump SELF loop
variable a loop 1000
change_box all x scale 0.95 y scale 0.95 z scale 0.95 remap
Changing box ...
  orthogonal box = (540.33585 537.19563 537.19563) to (659.66415 662.80437 662.80437)
  orthogonal box = (540.33585 540.33585 537.19563) to (659.66415 659.66415 662.80437)
  orthogonal box = (540.33585 540.33585 540.33585) to (659.66415 659.66415 659.66415)
run 8000
Per MPI rank memory allocation (min/avg/max) = 11.90 | 11.93 | 11.98 Mbytes
Step PotEng Temp Press KinEng Lx Ly Lz Pzz S/CPU Density 
 1358001    1757.4972    349.71984    1614.7764    6470.4773    119.32831    119.32831    119.32831    1596.1104            0   0.68077231 
 1366001   -958.82254    353.66047    19.838554    6543.3864    119.32831    119.32831    119.32831     18.73957     459.8355   0.68077231 
Loop time of 17.3992 on 6 procs for 8000 steps with 6208 atoms

Performance: 397.259 ns/day, 0.060 hours/ns, 459.791 timesteps/s
95.9% CPU use with 6 MPI tasks x no OpenMP threads

MPI task timing breakdown:
Section |  min time  |  avg time  |  max time  |%varavg| %total
---------------------------------------------------------------
Pair    | 11.4       | 12.25      | 12.813     |  12.3 | 70.41
Bond    | 0.095159   | 0.099162   | 0.10581    |   1.1 |  0.57
Neigh   | 1.5788     | 1.58       | 1.5811     |   0.1 |  9.08
Comm    | 2.1604     | 2.783      | 3.6633     |  27.3 | 16.00
Output  | 4.3869e-05 | 0.00033061 | 0.00173    |   0.0 |  0.00
Modify  | 0.43394    | 0.44553    | 0.45976    |   1.3 |  2.56
Other   |            | 0.2408     |            |       |  1.38

Nlocal:        1034.67 ave        1074 max         953 min
Histogram: 1 0 1 0 0 0 0 0 0 4
Nghost:        10401.0 ave       10504 max       10350 min
Histogram: 2 1 0 1 1 0 0 0 0 1
Neighs:        77788.0 ave       83686 max       68319 min
Histogram: 1 0 1 0 0 0 0 1 2 1

Total # of neighbors = 466728
Ave neighs/atom = 75.181701
Ave special neighs/atom = 1.9793814
Neighbor list builds = 335
Dangerous builds = 0

if "${myDensity} > 1.0" then "jump SELF break"

next a
jump SELF loop
variable a loop 1000
change_box all x scale 0.95 y scale 0.95 z scale 0.95 remap
Changing box ...
  orthogonal box = (543.31905 540.33585 540.33585) to (656.68095 659.66415 659.66415)
  orthogonal box = (543.31905 543.31905 540.33585) to (656.68095 656.68095 659.66415)
  orthogonal box = (543.31905 543.31905 543.31905) to (656.68095 656.68095 656.68095)
run 8000
Per MPI rank memory allocation (min/avg/max) = 11.91 | 12.00 | 12.37 Mbytes
Step PotEng Temp Press KinEng Lx Ly Lz Pzz S/CPU Density 
 1366001    1491.0158    353.66047    1946.0288    6543.3864    113.36189    113.36189    113.36189    1934.8242            0   0.79401931 
 1374001   -1427.7602    355.55623    42.212783    6578.4616    113.36189    113.36189    113.36189      47.0751    400.84944   0.79401931 
Loop time of 19.9603 on 6 procs for 8000 steps with 6208 atoms

Performance: 346.287 ns/day, 0.069 hours/ns, 400.795 timesteps/s
95.9% CPU use with 6 MPI tasks x no OpenMP threads

MPI task timing breakdown:
Section |  min time  |  avg time  |  max time  |%varavg| %total
---------------------------------------------------------------
Pair    | 13.501     | 14.177     | 14.852     |  11.5 | 71.03
Bond    | 0.10287    | 0.10685    | 0.10865    |   0.6 |  0.54
Neigh   | 1.8044     | 1.8067     | 1.8087     |   0.1 |  9.05
Comm    | 2.4258     | 3.1544     | 3.8679     |  25.5 | 15.80
Output  | 4.6015e-05 | 0.00050088 | 0.0027571  |   0.0 |  0.00
Modify  | 0.4386     | 0.44617    | 0.45859    |   1.1 |  2.24
Other   |            | 0.2685     |            |       |  1.35

Nlocal:        1034.67 ave        1054 max         996 min
Histogram: 1 0 0 0 0 1 0 1 2 1
Nghost:        11391.3 ave       11452 max       11328 min
Histogram: 2 0 0 0 0 2 0 0 1 1
Neighs:        90101.2 ave       93833 max       85209 min
Histogram: 1 0 0 1 0 1 0 2 0 1

Total # of neighbors = 540607
Ave neighs/atom = 87.082313
Ave special neighs/atom = 1.9793814
Neighbor list builds = 330
Dangerous builds = 0

if "${myDensity} > 1.0" then "jump SELF break"

next a
jump SELF loop
variable a loop 1000
change_box all x scale 0.95 y scale 0.95 z scale 0.95 remap
Changing box ...
  orthogonal box = (546.15310 543.31905 543.31905) to (653.84690 656.68095 656.68095)
  orthogonal box = (546.15310 546.15310 543.31905) to (653.84690 653.84690 656.68095)
  orthogonal box = (546.15310 546.15310 546.15310) to (653.84690 653.84690 653.84690)
run 8000
Per MPI rank memory allocation (min/avg/max) = 12.30 | 12.33 | 12.38 Mbytes
Step PotEng Temp Press KinEng Lx Ly Lz Pzz S/CPU Density 
 1374001    1205.9339    355.55623    2406.9554    6578.4616     107.6938     107.6938     107.6938    2416.9226            0   0.92610504 
 1382001   -1981.1964    355.62352    228.58042    6579.7065     107.6938     107.6938     107.6938    235.85694    359.21792   0.92610504 
Loop time of 22.2718 on 6 procs for 8000 steps with 6208 atoms

Performance: 310.348 ns/day, 0.077 hours/ns, 359.199 timesteps/s
96.1% CPU use with 6 MPI tasks x no OpenMP threads

MPI task timing breakdown:
Section |  min time  |  avg time  |  max time  |%varavg| %total
---------------------------------------------------------------
Pair    | 16.127     | 16.492     | 17.133     |   7.6 | 74.05
Bond    | 0.10764    | 0.11137    | 0.11425    |   0.8 |  0.50
Neigh   | 1.8556     | 1.8594     | 1.8618     |   0.1 |  8.35
Comm    | 2.452      | 3.0788     | 3.4775     |  17.9 | 13.82
Output  | 5.0068e-05 | 0.00024756 | 0.0012031  |   0.0 |  0.00
Modify  | 0.44297    | 0.448      | 0.45601    |   0.7 |  2.01
Other   |            | 0.282      |            |       |  1.27

Nlocal:        1034.67 ave        1046 max        1023 min
Histogram: 2 0 0 1 0 0 1 0 0 2
Nghost:        12510.2 ave       12530 max       12489 min
Histogram: 2 0 0 0 1 0 0 1 1 1
Neighs:        105176.0 ave      107311 max      102655 min
Histogram: 1 0 0 1 0 2 0 0 1 1

Total # of neighbors = 631054
Ave neighs/atom = 101.65174
Ave special neighs/atom = 1.9793814
Neighbor list builds = 333
Dangerous builds = 0

if "${myDensity} > 1.0" then "jump SELF break"

next a
jump SELF loop
variable a loop 1000
change_box all x scale 0.95 y scale 0.95 z scale 0.95 remap
Changing box ...
  orthogonal box = (548.84545 546.15310 546.15310) to (651.15455 653.84690 653.84690)
  orthogonal box = (548.84545 548.84545 546.15310) to (651.15455 651.15455 653.84690)
  orthogonal box = (548.84545 548.84545 548.84545) to (651.15455 651.15455 651.15455)
run 8000
Per MPI rank memory allocation (min/avg/max) = 12.32 | 12.35 | 12.40 Mbytes
Step PotEng Temp Press KinEng Lx Ly Lz Pzz S/CPU Density 
 1382001    1397.8584    355.62352    3257.2168    6579.7065    102.30911    102.30911    102.30911    3197.8342            0    1.0801633 
 1390001   -2692.8639     362.9188    525.82061     6714.683    102.30911    102.30911    102.30911    484.89159     313.0622    1.0801633 
Loop time of 25.5556 on 6 procs for 8000 steps with 6208 atoms

Performance: 270.469 ns/day, 0.089 hours/ns, 313.043 timesteps/s
96.6% CPU use with 6 MPI tasks x no OpenMP threads

MPI task timing breakdown:
Section |  min time  |  avg time  |  max time  |%varavg| %total
---------------------------------------------------------------
Pair    | 18.697     | 19.216     | 19.644     |   7.1 | 75.19
Bond    | 0.096563   | 0.10418    | 0.11479    |   2.0 |  0.41
Neigh   | 2.2528     | 2.256      | 2.2597     |   0.2 |  8.83
Comm    | 2.8293     | 3.2317     | 3.7742     |  17.7 | 12.65
Output  | 4.5061e-05 | 0.00031137 | 0.0016119  |   0.0 |  0.00
Modify  | 0.44255    | 0.4467     | 0.45184    |   0.4 |  1.75
Other   |            | 0.3007     |            |       |  1.18

Nlocal:        1034.67 ave        1046 max        1026 min
Histogram: 2 0 0 1 1 0 0 0 0 2
Nghost:        13827.5 ave       13863 max       13802 min
Histogram: 1 1 1 0 1 1 0 0 0 1
Neighs:        122934.0 ave      126837 max      118689 min
Histogram: 1 0 0 1 1 1 0 0 1 1

Total # of neighbors = 737602
Ave neighs/atom = 118.81476
Ave special neighs/atom = 1.9793814
Neighbor list builds = 340
Dangerous builds = 0

if "${myDensity} > 1.0" then "jump SELF break"
jump SELF break

####Replicate to form slab

replicate 1 1 7
Replicating atoms ...
  orthogonal box = (548.84545 548.84545 548.84545) to (651.15455 651.15455 1265.0092)
  1 by 1 by 6 MPI processor grid
  43456 atoms
  43008 bonds
Finding 1-2 1-3 1-4 neighbors ...
  special bond factors lj:    0        1        1       
  special bond factors coul:  0        1        1       
     2 = max # of 1-2 neighbors
     6 = max # of special neighbors
  special bonds CPU = 0.001 seconds
  replicate CPU = 0.007 seconds

run 1
Per MPI rank memory allocation (min/avg/max) = 26.63 | 26.66 | 26.71 Mbytes
Step PotEng Temp Press KinEng Lx Ly Lz Pzz S/CPU Density 
 1390001   -18850.047    362.86869    525.82061    47002.781    102.30911    102.30911    716.16376    484.89159            0    1.0801633 
 1390002   -18883.975    363.07451    529.47203    47029.441    102.30911    102.30911    716.16376    490.15898    47.151912    1.0801633 
Loop time of 0.0212562 on 6 procs for 1 steps with 43456 atoms

Performance: 40.647 ns/day, 0.590 hours/ns, 47.045 timesteps/s
94.3% CPU use with 6 MPI tasks x no OpenMP threads

MPI task timing breakdown:
Section |  min time  |  avg time  |  max time  |%varavg| %total
---------------------------------------------------------------
Pair    | 0.019243   | 0.019633   | 0.020018   |   0.2 | 92.37
Bond    | 0.00015402 | 0.00016383 | 0.00017095 |   0.0 |  0.77
Neigh   | 0          | 0          | 0          |   0.0 |  0.00
Comm    | 0.00046611 | 0.00079767 | 0.0012069  |   0.0 |  3.75
Output  | 7.7963e-05 | 0.00015803 | 0.00034595 |   0.0 |  0.74
Modify  | 0.00038099 | 0.00038779 | 0.00039816 |   0.0 |  1.82
Other   |            | 0.0001154  |            |       |  0.54

Nlocal:        7242.67 ave        7254 max        7230 min
Histogram: 1 0 0 1 1 1 0 0 1 1
Nghost:        29476.0 ave       29528 max       29400 min
Histogram: 1 0 0 1 0 1 1 0 1 1
Neighs:        860742.0 ave      867738 max      854453 min
Histogram: 1 2 0 0 0 0 0 1 1 1

Total # of neighbors = 5164453
Ave neighs/atom = 118.84327
Ave special neighs/atom = 1.9793814
Neighbor list builds = 0
Dangerous builds = 0

###Delete replicated atoms

group under molecule < 129
12416 atoms in group under
group over molecule  > 192
24832 atoms in group over
group replica union under over
37248 atoms in group replica
delete_atoms group replica
WARNING: Ignoring 'compress yes' for molecular system (../delete_atoms.cpp:125)
Deleted 37248 atoms, new total = 6208

###Run simulation

fix           fixcentro all recenter INIT INIT INIT
fix           fxbal  all balance 1000 1.05 rcb

compute densidad all chunk/atom bin/1d z lower 0.01 units reduced
fix 3 all ave/chunk 1000 70 100000 densidad density/mass file den-$d-$T.profile
fix 3 all ave/chunk 1000 70 100000 densidad density/mass file den-TIA_WT-$T.profile
fix 3 all ave/chunk 1000 70 100000 densidad density/mass file den-TIA_WT-350.profile

compute  rad all gyration
variable t equal step
variable r equal c_rad
fix      radfile all print 10000 "$t $r" file rad-$d-$T.dat screen no
fix      radfile all print 10000 "$t $r" file rad-TIA_WT-$T.dat screen no
fix      radfile all print 10000 "$t $r" file rad-TIA_WT-350.dat screen no

compute	msd all msd com yes
fix	msd all ave/time 1 1 10000 c_msd[4] file mds-$d-$T.dat
fix	msd all ave/time 1 1 10000 c_msd[4] file mds-TIA_WT-$T.dat
fix	msd all ave/time 1 1 10000 c_msd[4] file mds-TIA_WT-350.dat

run 10000000
Per MPI rank memory allocation (min/avg/max) = 28.87 | 29.17 | 30.11 Mbytes
Step PotEng Temp Press KinEng Lx Ly Lz Pzz S/CPU Density 
 1390002   -1929.6887    363.05567    70.674649    6717.2154    102.30911    102.30911    716.16376    64.745358            0   0.15430905 
 2000000   -306.36526    353.72353   -3.7981807    6544.5532    102.30911    102.30911    716.16376   0.28414756    613.27202   0.15430905 
 3000000   -357.06786    348.81113  -0.40264995    6453.6644    102.30911    102.30911    716.16376   0.81005348    627.68614   0.15430905 
 4000000   -337.38143    352.83549    7.9495546    6528.1227    102.30911    102.30911    716.16376    14.956294    658.51709   0.15430905 
 5000000    -432.1137    351.29398    3.0458683    6499.6018    102.30911    102.30911    716.16376    3.2377302    633.53583   0.15430905 
 6000000   -496.65364    349.90407   -1.9816373     6473.886    102.30911    102.30911    716.16376   -2.9019581    643.37612   0.15430905 
 7000000   -485.65704    354.20659   -6.4992182    6553.4907    102.30911    102.30911    716.16376   -10.047501    629.19252   0.15430905 
 8000000   -379.40915    351.64001    7.3766626    6506.0041    102.30911    102.30911    716.16376    8.5532123    624.02685   0.15430905 
 9000000   -369.60094    355.66892    -6.683544    6580.5466    102.30911    102.30911    716.16376   -12.503235    639.02092   0.15430905 
10000000   -448.06337     352.4483    1.0130417     6520.959    102.30911    102.30911    716.16376    4.1426085    629.86303   0.15430905 
11000000   -309.67957    348.00823   -4.0265158    6438.8093    102.30911    102.30911    716.16376  -0.76284607    646.52007   0.15430905 
11390002    -398.3307     348.1943  -0.69188559    6442.2519    102.30911    102.30911    716.16376    1.3006478    645.68826   0.15430905 
Loop time of 15734.3 on 6 procs for 10000000 steps with 6208 atoms

Performance: 549.120 ns/day, 0.044 hours/ns, 635.556 timesteps/s
99.5% CPU use with 6 MPI tasks x no OpenMP threads

MPI task timing breakdown:
Section |  min time  |  avg time  |  max time  |%varavg| %total
---------------------------------------------------------------
Pair    | 7681.6     | 10269      | 11066      |1166.7 | 65.26
Bond    | 111.28     | 113.31     | 115.2      |  12.3 |  0.72
Neigh   | 1417.9     | 1434       | 1454.6     |  32.7 |  9.11
Comm    | 2016       | 2819.2     | 5198.4     |2053.0 | 17.92
Output  | 0.2561     | 0.30923    | 0.51271    |  16.4 |  0.00
Modify  | 767.29     | 963.34     | 1157.2     | 592.4 |  6.12
Other   |            | 135.2      |            |       |  0.86

Nlocal:        1034.67 ave        1069 max         998 min
Histogram: 1 0 1 1 1 0 0 0 0 2
Nghost:        6114.00 ave        7333 max        4996 min
Histogram: 1 0 2 0 0 0 1 1 0 1
Neighs:        50740.0 ave       59908 max       34594 min
Histogram: 1 0 0 1 0 0 0 1 2 1

Total # of neighbors = 304440
Ave neighs/atom = 49.039948
Ave special neighs/atom = 1.9793814
Neighbor list builds = 382454
Dangerous builds = 0

write_data data$d-$T.out
write_data dataTIA_WT-$T.out
write_data dataTIA_WT-350.out
System init for write_data ...

shell cd ..

clear

next x

jump SELF loopT
variable x loop 5

variable T equal 340+10*$x
variable T equal 340+10*2

units       real
dimension   3
boundary    p p p
atom_style  full

shell cd $d/
shell cd TIA_WT/

read_data $d.config
read_data TIA_WT.config
Reading data file ...
  orthogonal box = (0.0000000 0.0000000 0.0000000) to (300.00000 300.00000 300.00000)
  1 by 2 by 3 MPI processor grid
  reading atoms ...
  97 atoms
  scanning bonds ...
  1 = max bonds/atom
  reading bonds ...
  96 bonds
Finding 1-2 1-3 1-4 neighbors ...
  special bond factors lj:    0        0        0       
  special bond factors coul:  0        0        0       
     2 = max # of 1-2 neighbors
     2 = max # of 1-3 neighbors
     4 = max # of 1-4 neighbors
     6 = max # of special neighbors
  special bonds CPU = 0.000 seconds
  read_data CPU = 0.023 seconds

log log.$T
log log.360
