
bond_style  harmonic
dielectric  80.0

set type 25 charge 0.75
Setting atom values ...
  0 settings made for charge
set type 27 charge -0.75
Setting atom values ...
  0 settings made for charge
set type 28 charge -0.75
Setting atom values ...
  0 settings made for charge
set type 36 charge 0.375
Setting atom values ...
  0 settings made for charge
set type 23 charge 0.75
Setting atom values ...
  0 settings made for charge

set type 5 charge 0.75
Setting atom values ...
  1 settings made for charge
set type 7 charge -0.75
Setting atom values ...
  0 settings made for charge
set type 3  charge 0.75
Setting atom values ...
  0 settings made for charge
set type 16 charge 0.375
Setting atom values ...
  0 settings made for charge
set type 8  charge -0.75
Setting atom values ...
  1 settings made for charge

bond_coeff          1     9.600     3.81
#bond_coeff          2     9.600     5.00

pair_style  hybrid/overlay wf/cut 25.0 coul/debye 0.126 0.0

pair_coeff 30 30 wf/cut 0.004751 6.45565 1 3 19.367
pair_coeff 1 1 wf/cut 0.039564 6.467950871367303 1 2 19.403852614101908
pair_coeff 1 2 wf/cut 0.068017 5.576178403526399 1 2 16.728535210579196
pair_coeff 1 3 wf/cut 0.032686 6.5677835361737795 1 2 19.70335060852134
pair_coeff 1 4 wf/cut 0.035161 6.178228033595178 1 2 18.534684100785533
pair_coeff 1 5 wf/cut 0.171515 6.643964892255349 1 2 19.93189467676605
pair_coeff 1 6 wf/cut 0.044522 5.868502140125925 1 2 17.605506420377775
pair_coeff 1 7 wf/cut 0.073172 6.14145960937047 1 2 18.424378828111408
pair_coeff 1 8 wf/cut 0.077577 6.318176525841784 1 2 18.95452957752535
pair_coeff 1 9 wf/cut 0.229375 6.590037435016079 1 2 19.770112305048237
pair_coeff 1 10 wf/cut 0.022571 6.320571545407576 1 2 18.96171463622273
pair_coeff 1 11 wf/cut 0.025281 6.483443734640188 1 2 19.450331203920562
pair_coeff 1 12 wf/cut 0.120006 6.36518785664648 1 2 19.09556356993944
pair_coeff 1 13 wf/cut 0.294931 6.755728450520449 1 2 20.267185351561345
pair_coeff 1 14 wf/cut 0.215603 6.538208522101147 1 2 19.61462556630344
pair_coeff 1 15 wf/cut 0.050582 5.938940625510648 1 2 17.816821876531947
pair_coeff 1 16 wf/cut 0.203491 6.392507281968151 1 2 19.177521845904455
pair_coeff 1 17 wf/cut 0.116706 6.188018494610175 1 2 18.564055483830522
pair_coeff 1 18 wf/cut 0.059120 6.1344640513130955 1 2 18.403392153939286
pair_coeff 1 19 wf/cut 0.054437 6.094294827619396 1 2 18.282884482858186
pair_coeff 1 20 wf/cut 0.019979 6.496393035701747 1 2 19.48917910710524
pair_coeff 1 21 wf/cut 0.033511 6.472967463905089 1 2 19.418902391715267
pair_coeff 1 22 wf/cut 0.053464 5.579884038976499 1 2 16.7396521169295
pair_coeff 1 23 wf/cut 0.028840 6.572908139010548 1 2 19.718724417031645
pair_coeff 1 24 wf/cut 0.030487 6.183085528083141 1 2 18.549256584249424
pair_coeff 1 25 wf/cut 0.126057 6.646517494086263 1 2 19.93955248225879
pair_coeff 1 26 wf/cut 0.037087 5.873266644604083 1 2 17.61979993381225
pair_coeff 1 27 wf/cut 0.057192 6.145621669676131 1 2 18.43686500902839
pair_coeff 1 28 wf/cut 0.060220 6.322430858089529 1 2 18.967292574268587
pair_coeff 1 29 wf/cut 0.166559 6.592040039094211 1 2 19.776120117282634
pair_coeff 1 30 wf/cut 0.022157 6.322886509244067 1 2 18.9686595277322
pair_coeff 1 31 wf/cut 0.023649 6.486360198534797 1 2 19.45908059560439
pair_coeff 1 32 wf/cut 0.089698 6.368425539955892 1 2 19.105276619867674
pair_coeff 1 33 wf/cut 0.212282 6.7573688868401405 1 2 20.27210666052042
pair_coeff 1 34 wf/cut 0.156918 6.5402914181442595 1 2 19.620874254432778
pair_coeff 1 35 wf/cut 0.041217 5.943583554201671 1 2 17.830750662605013
pair_coeff 1 36 wf/cut 0.148384 6.394666170151445 1 2 19.183998510454334
pair_coeff 1 37 wf/cut 0.087498 6.191219964195186 1 2 18.57365989258556
pair_coeff 1 38 wf/cut 0.047275 6.139108925912469 1 2 18.417326777737408
pair_coeff 1 39 wf/cut 0.043970 6.098946985727069 1 2 18.296840957181207
pair_coeff 1 40 wf/cut 0.019979 6.496393035701747 1 2 19.48917910710524
pair_coeff 2 2 wf/cut 0.096470 4.695110240398406 1 2 14.085330721195216
pair_coeff 2 3 wf/cut 0.061139 5.671338290828199 1 2 17.014014872484598
pair_coeff 2 4 wf/cut 0.063614 5.284424971479424 1 2 15.85327491443827
pair_coeff 2 5 wf/cut 0.199968 5.766386193227936 1 2 17.299158579683805
pair_coeff 2 6 wf/cut 0.072975 4.980134552672144 1 2 14.940403658016432
pair_coeff 2 7 wf/cut 0.101625 5.2592548053112145 1 2 15.777764415933643
pair_coeff 2 8 wf/cut 0.106030 5.436374588857539 1 2 16.30912376657262
pair_coeff 2 9 wf/cut 0.257828 5.7131654456309935 1 2 17.139496336892982
pair_coeff 2 10 wf/cut 0.051024 5.412393397897493 1 2 16.23718019369248
pair_coeff 2 11 wf/cut 0.053734 5.578930397816427 1 2 16.736791193449278
pair_coeff 2 12 wf/cut 0.148459 5.486299347261422 1 2 16.458898041784266
pair_coeff 2 13 wf/cut 0.323384 5.879238002082802 1 2 17.63771400624841
pair_coeff 2 14 wf/cut 0.244056 5.661218822883835 1 2 16.983656468651503
pair_coeff 2 15 wf/cut 0.079035 5.052524512175333 1 2 15.157573536526
pair_coeff 2 16 wf/cut 0.231944 5.515411637199979 1 2 16.54623491159994
pair_coeff 2 17 wf/cut 0.145159 5.3090163197417555 1 2 15.927048959225267
pair_coeff 2 18 wf/cut 0.087573 5.249990542761369 1 2 15.749971628284106
pair_coeff 2 19 wf/cut 0.082890 5.208722790322849 1 2 15.626168370968546
pair_coeff 2 20 wf/cut 0.048432 5.580329252471181 1 2 16.740987757413542
pair_coeff 2 21 wf/cut 0.061964 5.577215175821233 1 2 16.731645527463698
pair_coeff 2 22 wf/cut 0.081917 4.696396560631559 1 2 14.089189681894677
pair_coeff 2 23 wf/cut 0.057293 5.67211261999139 1 2 17.016337859974172
pair_coeff 2 24 wf/cut 0.058940 5.285212528563172 1 2 15.855637585689518
pair_coeff 2 25 wf/cut 0.154510 5.767769508320207 1 2 17.30330852496062
pair_coeff 2 26 wf/cut 0.065540 4.981125987510791 1 2 14.943377962532374
pair_coeff 2 27 wf/cut 0.085645 5.260651874488179 1 2 15.781955623464537
pair_coeff 2 28 wf/cut 0.088673 5.437809343618614 1 2 16.313428030855842
pair_coeff 2 29 wf/cut 0.195012 5.714358676536591 1 2 17.143076029609773
pair_coeff 2 30 wf/cut 0.050610 5.412530359493723 1 2 16.23759107848117
pair_coeff 2 31 wf/cut 0.052102 5.579325356579805 1 2 16.737976069739414
pair_coeff 2 32 wf/cut 0.118151 5.487774115196598 1 2 16.463322345589795
pair_coeff 2 33 wf/cut 0.240735 5.880303283956183 1 2 17.64090985186855
pair_coeff 2 34 wf/cut 0.185371 5.662447134978403 1 2 16.987341404935208
pair_coeff 2 35 wf/cut 0.069670 5.053695239348068 1 2 15.161085718044204
pair_coeff 2 36 wf/cut 0.176837 5.516638738971832 1 2 16.549916216915495
pair_coeff 2 37 wf/cut 0.115951 5.310437234694913 1 2 15.931311704084738
pair_coeff 2 38 wf/cut 0.075728 5.251325825579545 1 2 15.753977476738633
pair_coeff 2 39 wf/cut 0.072423 5.20997288304294 1 2 15.629918649128818
pair_coeff 2 40 wf/cut 0.048432 5.580329252471181 1 2 16.740987757413542
pair_coeff 3 3 wf/cut 0.019117 6.671340524039856 1 2 20.014021572119567
pair_coeff 3 4 wf/cut 0.028283 6.279399881910995 1 2 18.838199645732985
pair_coeff 3 5 wf/cut 0.121938 6.73819193132635 1 2 20.21457579397905
pair_coeff 3 6 wf/cut 0.037644 5.966686347623176 1 2 17.90005904286953
pair_coeff 3 7 wf/cut 0.000493 6.236987380482699 1 2 18.710962141448096
pair_coeff 3 8 wf/cut 0.000526 6.413575163938182 1 2 19.240725491814544
pair_coeff 3 9 wf/cut 0.102701 6.684083406034673 1 2 20.052250218104017
pair_coeff 3 10 wf/cut 0.015693 6.433541011383533 1 2 19.3006230341506
pair_coeff 3 11 wf/cut 0.018403 6.592557574989555 1 2 19.777672724968664
pair_coeff 3 12 wf/cut 0.113128 6.4596938105680355 1 2 19.37908143170411
pair_coeff 3 13 wf/cut 0.104796 6.849685211660051 1 2 20.549055634980153
pair_coeff 3 14 wf/cut 0.115276 6.632280360446061 1 2 19.896841081338184
pair_coeff 3 15 wf/cut 0.043704 6.036179732070119 1 2 18.10853919621036
pair_coeff 3 16 wf/cut 0.087370 6.4866030031823305 1 2 19.45980900954699
pair_coeff 3 17 wf/cut 0.109828 6.2825460057664415 1 2 18.847638017299325
pair_coeff 3 18 wf/cut 0.052242 6.2310615597122725 1 2 18.693184679136817
pair_coeff 3 19 wf/cut 0.047559 6.191153675456269 1 2 18.573461026368804
pair_coeff 3 20 wf/cut 0.013101 6.617996254538358 1 2 19.853988763615074
pair_coeff 3 21 wf/cut 0.026633 6.575236990212751 1 2 19.725710970638254
pair_coeff 3 22 wf/cut 0.046586 5.67591070475063 1 2 17.02773211425189
pair_coeff 3 23 wf/cut 0.016267 6.6786690213492745 1 2 20.036007064047823
pair_coeff 3 24 wf/cut 0.023609 6.28697050091405 1 2 18.860911502742148
pair_coeff 3 25 wf/cut 0.088471 6.7410021187479785 1 2 20.223006356243935
pair_coeff 3 26 wf/cut 0.030209 5.973496417353158 1 2 17.920489252059475
pair_coeff 3 27 wf/cut 0.000375 6.242202340571064 1 2 18.726607021713193
pair_coeff 3 28 wf/cut 0.000395 6.41884518513886 1 2 19.25653555541658
pair_coeff 3 29 wf/cut 0.087295 6.686244113621416 1 2 20.058732340864246
pair_coeff 3 30 wf/cut 0.015279 6.438064853494475 1 2 19.314194560483426
pair_coeff 3 31 wf/cut 0.016771 6.597859600272992 1 2 19.793578800818977
pair_coeff 3 32 wf/cut 0.082820 6.463434808995108 1 2 19.390304426985324
pair_coeff 3 33 wf/cut 0.089077 6.851438991432198 1 2 20.554316974296594
pair_coeff 3 34 wf/cut 0.097985 6.634536462444846 1 2 19.903609387334537
pair_coeff 3 35 wf/cut 0.034339 6.042553594266142 1 2 18.127660782798426
pair_coeff 3 36 wf/cut 0.062880 6.488951472342971 1 2 19.466854417028912
pair_coeff 3 37 wf/cut 0.080620 6.286259565568102 1 2 18.858778696704306
pair_coeff 3 38 wf/cut 0.040397 6.23694969931501 1 2 18.71084909794503
pair_coeff 3 39 wf/cut 0.037092 6.197406382364393 1 2 18.59221914709318
pair_coeff 3 40 wf/cut 0.013101 6.617996254538358 1 2 19.853988763615074
pair_coeff 4 4 wf/cut 0.030758 5.8890615748048605 1 2 17.667184724414582
pair_coeff 4 5 wf/cut 0.167112 6.352015695367313 1 2 19.056047086101938
pair_coeff 4 6 wf/cut 0.040119 5.577947754246859 1 2 16.733843262740578
pair_coeff 4 7 wf/cut 0.068769 5.849866323299111 1 2 17.549598969897332
pair_coeff 4 8 wf/cut 0.073174 6.026541387517959 1 2 18.079624162553877
pair_coeff 4 9 wf/cut 0.224972 6.298063007043266 1 2 18.894189021129797
pair_coeff 4 10 wf/cut 0.018168 6.03696547344559 1 2 18.11089642033677
pair_coeff 4 11 wf/cut 0.020878 6.198088878491606 1 2 18.594266635474817
pair_coeff 4 12 wf/cut 0.115603 6.073287961608412 1 2 18.219863884825237
pair_coeff 4 13 wf/cut 0.290527 6.463775207339586 1 2 19.39132562201876
pair_coeff 4 14 wf/cut 0.211200 6.246251077325644 1 2 18.73875323197693
pair_coeff 4 15 wf/cut 0.046179 5.648007650359314 1 2 16.94402295107794
pair_coeff 4 16 wf/cut 0.199088 6.1005286446452045 1 2 18.301585933935613
pair_coeff 4 17 wf/cut 0.112303 5.896099182190375 1 2 17.688297546571125
pair_coeff 4 18 wf/cut 0.054717 5.84319611761197 1 2 17.52958835283591
pair_coeff 4 19 wf/cut 0.050034 5.803211551983609 1 2 17.40963465595083
pair_coeff 4 20 wf/cut 0.015576 6.214617146494642 1 2 18.643851439483925
pair_coeff 4 21 wf/cut 0.029108 6.184377266229273 1 2 18.55313179868782
pair_coeff 4 22 wf/cut 0.049061 5.288433024843104 1 2 15.865299074529311
pair_coeff 4 23 wf/cut 0.024437 6.285985931141882 1 2 18.857957793425648
pair_coeff 4 24 wf/cut 0.026084 5.895181038887271 1 2 17.685543116661812
pair_coeff 4 25 wf/cut 0.121654 6.3546176961456355 1 2 19.063853088436908
pair_coeff 4 26 wf/cut 0.032684 5.583620888610048 1 2 16.75086266583014
pair_coeff 4 27 wf/cut 0.052789 5.854435916763915 1 2 17.563307750291745
pair_coeff 4 28 wf/cut 0.055817 6.031184910048361 1 2 18.093554730145083
pair_coeff 4 29 wf/cut 0.162155 6.300073473520442 1 2 18.900220420561325
pair_coeff 4 30 wf/cut 0.017754 6.038590687548953 1 2 18.115772062646858
pair_coeff 4 31 wf/cut 0.019246 6.20213243224441 1 2 18.606397296733228
pair_coeff 4 32 wf/cut 0.085295 6.076667470375622 1 2 18.230002411126865
pair_coeff 4 33 wf/cut 0.207879 6.4653998696548625 1 2 19.396199608964587
pair_coeff 4 34 wf/cut 0.152515 6.248347277402027 1 2 18.74504183220608
pair_coeff 4 35 wf/cut 0.036814 5.653400669933968 1 2 16.960202009801904
pair_coeff 4 36 wf/cut 0.143981 6.1027057764377375 1 2 18.308117329313212
pair_coeff 4 37 wf/cut 0.083095 5.899444861363162 1 2 17.698334584089487
pair_coeff 4 38 wf/cut 0.042872 5.848454222246143 1 2 17.545362666738427
pair_coeff 4 39 wf/cut 0.039567 5.808550835350359 1 2 17.425652506051076
pair_coeff 4 40 wf/cut 0.015576 6.214617146494642 1 2 18.643851439483925
pair_coeff 5 5 wf/cut 0.089916 6.839051042416954 1 2 20.51715312725086
pair_coeff 5 6 wf/cut 0.176473 6.049093128275473 1 2 18.14727938482642
pair_coeff 5 7 wf/cut 0.001522 6.329860382208001 1 2 18.989581146624005
pair_coeff 5 8 wf/cut 0.001554 6.507087894628845 1 2 19.521263683886534
pair_coeff 5 9 wf/cut 0.607820 6.786238537205683 1 2 20.358715611617047
pair_coeff 5 10 wf/cut 0.154522 6.477800731622431 1 2 19.433402194867295
pair_coeff 5 11 wf/cut 0.157232 6.644606745714045 1 2 19.933820237142136
pair_coeff 5 12 wf/cut 0.251957 6.5582801074116395 1 2 19.674840322234918
pair_coeff 5 13 wf/cut 0.691657 6.952550947859904 1 2 20.85765284357971
pair_coeff 5 14 wf/cut 0.544942 6.734244851368496 1 2 20.20273455410549
pair_coeff 5 15 wf/cut 0.182533 6.121907195991114 1 2 18.365721587973344
pair_coeff 5 16 wf/cut 0.124237 6.588371399225676 1 2 19.76511419767703
pair_coeff 5 17 wf/cut 0.248657 6.381027696653046 1 2 19.143083089959138
pair_coeff 5 18 wf/cut 0.191071 6.319850876308843 1 2 18.95955262892653
pair_coeff 5 19 wf/cut 0.186388 6.2782756347766915 1 2 18.834826904330075
pair_coeff 5 20 wf/cut 0.151930 6.644914452592528 1 2 19.934743357777585
pair_coeff 5 21 wf/cut 0.165462 6.6442230427261695 1 2 19.93266912817851
pair_coeff 5 22 wf/cut 0.185415 5.7668587075646895 1 2 17.300576122694068
pair_coeff 5 23 wf/cut 0.160791 6.738370816695987 1 2 20.21511245008796
pair_coeff 5 24 wf/cut 0.162438 6.352227758045304 1 2 19.056683274135914
pair_coeff 5 25 wf/cut 0.076528 6.839775073180529 1 2 20.519325219541585
pair_coeff 5 26 wf/cut 0.169038 6.0493803544908396 1 2 18.14814106347252
pair_coeff 5 27 wf/cut 0.001403 6.330338025744615 1 2 18.991014077233842
pair_coeff 5 28 wf/cut 0.001424 6.507609785991295 1 2 19.522829357973883
pair_coeff 5 29 wf/cut 0.516647 6.786966179847217 1 2 20.36089853954165
pair_coeff 5 30 wf/cut 0.154108 6.477855546012645 1 2 19.433566638037934
pair_coeff 5 31 wf/cut 0.155600 6.644688317632491 1 2 19.934064952897472
pair_coeff 5 32 wf/cut 0.221649 6.558922216808411 1 2 19.676766650425233
pair_coeff 5 33 wf/cut 0.587908 6.953270762564632 1 2 20.859812287693895
pair_coeff 5 34 wf/cut 0.463200 6.734965561624807 1 2 20.20489668487442
pair_coeff 5 35 wf/cut 0.173168 6.122239691611766 1 2 18.366719074835295
pair_coeff 5 36 wf/cut 0.103828 6.589083179632521 1 2 19.767249538897563
pair_coeff 5 37 wf/cut 0.219449 6.381655047319296 1 2 19.14496514195789
pair_coeff 5 38 wf/cut 0.179226 6.320242196579514 1 2 18.96072658973854
pair_coeff 5 39 wf/cut 0.175921 6.27864243896636 1 2 18.83592731689908
pair_coeff 5 40 wf/cut 0.151930 6.644914452592528 1 2 19.934743357777585
pair_coeff 6 6 wf/cut 0.049480 5.270073550243385 1 2 15.810220650730155
pair_coeff 6 7 wf/cut 0.078130 5.545103888084069 1 2 16.635311664252207
pair_coeff 6 8 wf/cut 0.082535 5.721983178129665 1 2 17.165949534388993
pair_coeff 6 9 wf/cut 0.234333 5.995374866482686 1 2 17.986124599448058
pair_coeff 6 10 wf/cut 0.027529 5.714672842433839 1 2 17.14401852730152
pair_coeff 6 11 wf/cut 0.030239 5.879183169613761 1 2 17.637549508841282
pair_coeff 6 12 wf/cut 0.124964 5.769878425481944 1 2 17.30963527644583
pair_coeff 6 13 wf/cut 0.299889 6.1612197345718664 1 2 18.4836592037156
pair_coeff 6 14 wf/cut 0.220561 5.943524169558512 1 2 17.830572508675537
pair_coeff 6 15 wf/cut 0.055540 5.341186580911172 1 2 16.023559742733518
pair_coeff 6 16 wf/cut 0.208449 5.797765867232053 1 2 17.393297601696162
pair_coeff 6 17 wf/cut 0.121665 5.592676667454632 1 2 16.778030002363895
pair_coeff 6 18 wf/cut 0.064078 5.537383848868321 1 2 16.612151546604963
pair_coeff 6 19 wf/cut 0.059395 5.496867679432823 1 2 16.490603038298467
pair_coeff 6 20 wf/cut 0.024937 5.887264113119765 1 2 17.661792339359295
pair_coeff 6 21 wf/cut 0.038469 5.872091702440819 1 2 17.616275107322455
pair_coeff 6 22 wf/cut 0.058422 4.983057318967985 1 2 14.949171956903955
pair_coeff 6 23 wf/cut 0.033798 5.970212624670237 1 2 17.91063787401071
pair_coeff 6 24 wf/cut 0.035445 5.581322386503443 1 2 16.743967159510326
pair_coeff 6 25 wf/cut 0.131015 6.051283655448215 1 2 18.153850966344642
pair_coeff 6 26 wf/cut 0.042046 5.273529178305013 1 2 15.82058753491504
pair_coeff 6 27 wf/cut 0.062150 5.548382201124551 1 2 16.645146603373654
pair_coeff 6 28 wf/cut 0.065178 5.725365872076537 1 2 17.17609761622961
pair_coeff 6 29 wf/cut 0.171517 5.997120040197383 1 2 17.991360120592148
pair_coeff 6 30 wf/cut 0.027116 5.716115591130418 1 2 17.148346773391253
pair_coeff 6 31 wf/cut 0.028607 5.881066148485684 1 2 17.643198445457053
pair_coeff 6 32 wf/cut 0.094656 5.77257425641905 1 2 17.317722769257152
pair_coeff 6 33 wf/cut 0.217240 6.16266774871136 1 2 18.48800324613408
pair_coeff 6 34 wf/cut 0.161876 5.945332519051 1 2 17.835997557153
pair_coeff 6 35 wf/cut 0.046175 5.344636755005952 1 2 16.03391026501786
pair_coeff 6 36 wf/cut 0.153342 5.799630893236802 1 2 17.398892679710407
pair_coeff 6 37 wf/cut 0.092457 5.595329366190724 1 2 16.785988098572172
pair_coeff 6 38 wf/cut 0.052233 5.540935423926066 1 2 16.6228062717782
pair_coeff 6 39 wf/cut 0.048928 5.50037559161048 1 2 16.50112677483144
pair_coeff 6 40 wf/cut 0.024937 5.887264113119765 1 2 17.661792339359295
pair_coeff 7 7 wf/cut 0.079096 5.823521721060312 1 2 17.470565163180936
pair_coeff 7 8 wf/cut 0.082359 6.000582237524121 1 2 18.001746712572363
pair_coeff 7 9 wf/cut 0.262983 6.276473791430636 1 2 18.829421374291908
pair_coeff 7 10 wf/cut 0.056178 5.978735433494051 1 2 17.93620630048215
pair_coeff 7 11 wf/cut 0.058888 6.145089275635634 1 2 18.4352678269069
pair_coeff 7 12 wf/cut 0.153614 6.0500403862929435 1 2 18.150121158878832
pair_coeff 7 13 wf/cut 0.328538 6.4424403069543335 1 2 19.327320920863002
pair_coeff 7 14 wf/cut 0.249211 6.224557346027278 1 2 18.673672038081833
pair_coeff 7 15 wf/cut 0.084189 5.617298771179795 1 2 16.851896313539385
pair_coeff 7 16 wf/cut 0.001758 6.078759471752929 1 2 18.236278415258788
pair_coeff 7 17 wf/cut 0.150314 5.872796196825872 1 2 17.618388590477615
pair_coeff 7 18 wf/cut 0.092728 5.81454574012806 1 2 17.44363722038418
pair_coeff 7 19 wf/cut 0.088045 5.773404302618334 1 2 17.320212907855
pair_coeff 7 20 wf/cut 0.053587 6.146988238119009 1 2 18.44096471435703
pair_coeff 7 21 wf/cut 0.067118 6.142810853550669 1 2 18.428432560652006
pair_coeff 7 22 wf/cut 0.087071 5.260822534908925 1 2 15.782467604726776
pair_coeff 7 23 wf/cut 0.062448 6.238009317192061 1 2 18.714027951576185
pair_coeff 7 24 wf/cut 0.064094 5.850906179325341 1 2 17.552718537976023
pair_coeff 7 25 wf/cut 0.159665 6.331479448731908 1 2 18.994438346195725
pair_coeff 7 26 wf/cut 0.070695 5.546505225276659 1 2 16.639515675829976
pair_coeff 7 27 wf/cut 0.067258 5.825264832984326 1 2 17.47579449895298
pair_coeff 7 28 wf/cut 0.069297 6.002427424339147 1 2 18.00728227301744
pair_coeff 7 29 wf/cut 0.200166 6.277866750279897 1 2 18.83360025083969
pair_coeff 7 30 wf/cut 0.055765 5.978921905643417 1 2 17.93676571693025
pair_coeff 7 31 wf/cut 0.057257 6.145621669676131 1 2 18.43686500902839
pair_coeff 7 32 wf/cut 0.123306 6.051811079871612 1 2 18.155433239614837
pair_coeff 7 33 wf/cut 0.245890 6.4436539809330755 1 2 19.330961942799227
pair_coeff 7 34 wf/cut 0.190526 6.225980124267849 1 2 18.677940372803548
pair_coeff 7 35 wf/cut 0.074825 5.6188072088999945 1 2 16.856421626699984
pair_coeff 7 36 wf/cut 0.001350 6.080187764149639 1 2 18.24056329244892
pair_coeff 7 37 wf/cut 0.121106 5.874523045623452 1 2 17.623569136870355
pair_coeff 7 38 wf/cut 0.080883 5.816239431041905 1 2 17.448718293125715
pair_coeff 7 39 wf/cut 0.077578 5.775001596638995 1 2 17.325004789916985
pair_coeff 7 40 wf/cut 0.053587 6.146988238119009 1 2 18.44096471435703
pair_coeff 8 8 wf/cut 0.085622 6.177670315650897 1 2 18.533010946952693
pair_coeff 8 9 wf/cut 0.267388 6.453698205558216 1 2 19.36109461667465
pair_coeff 8 10 wf/cut 0.060583 6.155038804583549 1 2 18.46511641375065
pair_coeff 8 11 wf/cut 0.063293 6.321457293122011 1 2 18.964371879366034
pair_coeff 8 12 wf/cut 0.158019 6.22721384211578 1 2 18.681641526347338
pair_coeff 8 13 wf/cut 0.332943 6.61969178186508 1 2 19.85907534559524
pair_coeff 8 14 wf/cut 0.253616 6.401798946045327 1 2 19.205396838135982
pair_coeff 8 15 wf/cut 0.088594 5.794219764312674 1 2 17.382659292938023
pair_coeff 8 16 wf/cut 0.001791 6.2560007029022255 1 2 18.768002108706675
pair_coeff 8 17 wf/cut 0.154719 6.049988923928926 1 2 18.14996677178678
pair_coeff 8 18 wf/cut 0.097133 5.991524845146615 1 2 17.974574535439846
pair_coeff 8 19 wf/cut 0.092450 5.950364732175825 1 2 17.851094196527477
pair_coeff 8 20 wf/cut 0.057992 6.323325627682127 1 2 18.96997688304638
pair_coeff 8 21 wf/cut 0.071523 6.319407907453407 1 2 18.95822372236022
pair_coeff 8 22 wf/cut 0.091476 5.437918514751647 1 2 16.313755544254942
pair_coeff 8 23 wf/cut 0.066853 6.414637503765215 1 2 19.243912511295648
pair_coeff 8 24 wf/cut 0.068499 6.027610728824833 1 2 18.082832186474498
pair_coeff 8 25 wf/cut 0.164070 6.50867097271995 1 2 19.52601291815985
pair_coeff 8 26 wf/cut 0.075100 5.723271374681476 1 2 17.16981412404443
pair_coeff 8 27 wf/cut 0.095204 6.002225923033709 1 2 18.006677769101127
pair_coeff 8 28 wf/cut 0.072560 6.179413824459994 1 2 18.538241473379983
pair_coeff 8 29 wf/cut 0.204571 6.455074051412765 1 2 19.365222154238296
pair_coeff 8 30 wf/cut 0.060170 6.155372367938502 1 2 18.466117103815506
pair_coeff 8 31 wf/cut 0.061662 6.321931368367982 1 2 18.965794105103946
pair_coeff 8 32 wf/cut 0.127711 6.228922014398231 1 2 18.686766043194694
pair_coeff 8 33 wf/cut 0.250295 6.620903112987423 1 2 19.86270933896227
pair_coeff 8 34 wf/cut 0.194931 6.403201712664134 1 2 19.2096051379924
pair_coeff 8 35 wf/cut 0.079230 5.795615810910755 1 2 17.386847432732267
pair_coeff 8 36 wf/cut 0.001379 6.257425310960982 1 2 18.772275932882945
pair_coeff 8 37 wf/cut 0.125511 6.051653861598323 1 2 18.154961584794968
pair_coeff 8 38 wf/cut 0.085288 5.993104375441103 1 2 17.97931312632331
pair_coeff 8 39 wf/cut 0.081983 5.951847773872721 1 2 17.855543321618164
pair_coeff 8 40 wf/cut 0.057992 6.323325627682127 1 2 18.96997688304638
pair_coeff 9 9 wf/cut 0.419186 6.733634028253079 1 2 20.20090208475924
pair_coeff 9 10 wf/cut 0.212382 6.423549039740656 1 2 19.270647119221966
pair_coeff 9 11 wf/cut 0.215092 6.590387900103195 1 2 19.771163700309586
pair_coeff 9 12 wf/cut 0.309817 6.50524897581083 1 2 19.51574692743249
pair_coeff 9 13 wf/cut 0.484741 6.900050363131952 1 2 20.700151089395856
pair_coeff 9 14 wf/cut 0.405414 6.6815889712242855 1 2 20.044766913672856
pair_coeff 9 15 wf/cut 0.240393 6.068280818635755 1 2 18.204842455907265
pair_coeff 9 16 wf/cut 0.393302 6.535691224609458 1 2 19.607073673828374
pair_coeff 9 17 wf/cut 0.306517 6.327982683666391 1 2 18.98394805099917
pair_coeff 9 18 wf/cut 0.248931 6.266295198960733 1 2 18.798885596882197
pair_coeff 9 19 wf/cut 0.244248 6.2246507773507185 1 2 18.673952332052156
pair_coeff 9 20 wf/cut 0.209790 6.5905505017289965 1 2 19.771651505186988
pair_coeff 9 21 wf/cut 0.223322 6.590180270116687 1 2 19.770540810350063
pair_coeff 9 22 wf/cut 0.243275 5.713450024075365 1 2 17.140350072226095
pair_coeff 9 23 wf/cut 0.218651 6.6841805825849985 1 2 20.052541747754994
pair_coeff 9 24 wf/cut 0.220298 6.298178954636986 1 2 18.894536863910957
pair_coeff 9 25 wf/cut 0.315868 6.786739795335731 1 2 20.360219386007195
pair_coeff 9 26 wf/cut 0.226898 5.99553560612189 1 2 17.98660681836567
pair_coeff 9 27 wf/cut 0.247003 6.276768673597067 1 2 18.8303060207912
pair_coeff 9 28 wf/cut 0.250031 6.454011505099358 1 2 19.362034515298074
pair_coeff 9 29 wf/cut 0.356369 6.734156486173098 1 2 20.202469458519293
pair_coeff 9 30 wf/cut 0.211968 6.4235779793345555 1 2 19.270733938003666
pair_coeff 9 31 wf/cut 0.213460 6.590431338464252 1 2 19.771294015392755
pair_coeff 9 32 wf/cut 0.279509 6.505661229041637 1 2 19.516983687124913
pair_coeff 9 33 wf/cut 0.402093 6.900589936537501 1 2 20.701769809612504
pair_coeff 9 34 wf/cut 0.346729 6.682106650582579 1 2 20.046319951747737
pair_coeff 9 35 wf/cut 0.231028 6.06846960743136 1 2 18.20540882229408
pair_coeff 9 36 wf/cut 0.338195 6.536191669581551 1 2 19.60857500874465
pair_coeff 9 37 wf/cut 0.277309 6.328383771538186 1 2 18.98515131461456
pair_coeff 9 38 wf/cut 0.237086 6.266521616565618 1 2 18.799564849696853
pair_coeff 9 39 wf/cut 0.233781 6.224860927463627 1 2 18.674582782390882
pair_coeff 9 40 wf/cut 0.209790 6.5905505017289965 1 2 19.771651505186988
pair_coeff 10 10 wf/cut 0.005578 6.265999286288815 1 2 18.797997858866445
pair_coeff 10 11 wf/cut 0.008288 6.390932891994093 1 2 19.17279867598228
pair_coeff 10 12 wf/cut 0.103013 6.199729734496916 1 2 18.59918920349075
pair_coeff 10 13 wf/cut 0.277937 6.589117480615403 1 2 19.76735244184621
pair_coeff 10 14 wf/cut 0.198610 6.371783619045257 1 2 19.11535085713577
pair_coeff 10 15 wf/cut 0.033589 5.781664862063682 1 2 17.344994586191046
pair_coeff 10 16 wf/cut 0.186498 6.226104236834126 1 2 18.67831271050238
pair_coeff 10 17 wf/cut 0.099713 6.022605657483588 1 2 18.067816972450764
pair_coeff 10 18 wf/cut 0.042127 5.974331431598945 1 2 17.922994294796837
pair_coeff 10 19 wf/cut 0.037444 5.935671447441882 1 2 17.807014342325644
pair_coeff 10 21 wf/cut 0.016518 6.336783382464571 1 2 19.010350147393712
pair_coeff 10 22 wf/cut 0.036471 5.418375566526451 1 2 16.255126699579353
pair_coeff 10 23 wf/cut 0.011847 6.452549354094189 1 2 19.357648062282568
pair_coeff 10 24 wf/cut 0.013494 6.0532242372044625 1 2 18.15967271161339
pair_coeff 10 25 wf/cut 0.109064 6.480992623201166 1 2 19.442977869603496
pair_coeff 10 26 wf/cut 0.020094 5.727883796640076 1 2 17.18365138992023
pair_coeff 10 27 wf/cut 0.040199 5.986137211233324 1 2 17.958411633699974
pair_coeff 10 28 wf/cut 0.043227 6.162354266488605 1 2 18.487062799465814
pair_coeff 10 29 wf/cut 0.149565 6.425899535640867 1 2 19.277698606922602
pair_coeff 10 30 wf/cut 0.005164 6.279450553510229 1 2 18.838351660530687
pair_coeff 10 31 wf/cut 0.006656 6.414806714205564 1 2 19.24442014261669
pair_coeff 10 32 wf/cut 0.072705 6.20424895331838 1 2 18.61274685995514
pair_coeff 10 33 wf/cut 0.195289 6.590957221363035 1 2 19.772871664089106
pair_coeff 10 34 wf/cut 0.139925 6.374256698313246 1 2 19.12277009493974
pair_coeff 10 35 wf/cut 0.024224 5.79281450588842 1 2 17.37844351766526
pair_coeff 10 36 wf/cut 0.131391 6.228661475252712 1 2 18.685984425758136
pair_coeff 10 37 wf/cut 0.070505 6.027117316392745 1 2 18.081351949178234
pair_coeff 10 38 wf/cut 0.030282 5.983977483837185 1 2 17.951932451511553
pair_coeff 10 39 wf/cut 0.026977 5.94607610198081 1 2 17.83822830594243
pair_coeff 11 11 wf/cut 0.010998 6.53407242179841 1 2 19.60221726539523
pair_coeff 11 12 wf/cut 0.105723 6.366490684329992 1 2 19.099472052989977
pair_coeff 11 13 wf/cut 0.280647 6.755935225417062 1 2 20.267805676251186
pair_coeff 11 14 wf/cut 0.201320 6.538603519887749 1 2 19.615810559663245
pair_coeff 11 15 wf/cut 0.036299 5.946968662780402 1 2 17.840905988341206
pair_coeff 11 16 wf/cut 0.189208 6.392942886970462 1 2 19.178828660911385
pair_coeff 11 17 wf/cut 0.102423 6.189364574070181 1 2 18.56809372221054
pair_coeff 11 18 wf/cut 0.044837 6.1402119935661545 1 2 18.420635980698464
pair_coeff 11 19 wf/cut 0.040154 6.101247830628814 1 2 18.30374349188644
pair_coeff 11 20 wf/cut 0.005696 6.607723261980873 1 2 19.823169785942618
pair_coeff 11 21 wf/cut 0.019228 6.496393035701747 1 2 19.48917910710524
pair_coeff 11 22 wf/cut 0.039181 5.584501642231329 1 2 16.753504926693985
pair_coeff 11 23 wf/cut 0.014557 6.60658239133453 1 2 19.819747174003588
pair_coeff 11 24 wf/cut 0.016204 6.210508609486856 1 2 18.631525828460568
pair_coeff 11 25 wf/cut 0.111774 6.647740379710509 1 2 19.943221139131527
pair_coeff 11 26 wf/cut 0.022804 5.890170182090268 1 2 17.670510546270805
pair_coeff 11 27 wf/cut 0.042909 6.151889183567281 1 2 18.455667550701843
pair_coeff 11 28 wf/cut 0.045937 6.3282208238107795 1 2 18.984662471432337
pair_coeff 11 29 wf/cut 0.152275 6.5927216895129135 1 2 19.77816506853874
pair_coeff 11 30 wf/cut 0.007874 6.397951767513159 1 2 19.193855302539475
pair_coeff 11 31 wf/cut 0.009366 6.548412328573101 1 2 19.645236985719304
pair_coeff 11 32 wf/cut 0.075415 6.370842118401069 1 2 19.112526355203208
pair_coeff 11 33 wf/cut 0.197999 6.75777413374384 1 2 20.27332240123152
pair_coeff 11 34 wf/cut 0.142635 6.541054552668633 1 2 19.623163658005897
pair_coeff 11 35 wf/cut 0.026934 5.956563720651988 1 2 17.869691161955963
pair_coeff 11 36 wf/cut 0.134101 6.395473237725452 1 2 19.186419713176356
pair_coeff 11 37 wf/cut 0.073215 6.193703302501737 1 2 18.58110990750521
pair_coeff 11 38 wf/cut 0.032992 6.148785435376327 1 2 18.446356306128983
pair_coeff 11 39 wf/cut 0.029687 6.110345071454451 1 2 18.331035214363354
pair_coeff 11 40 wf/cut 0.005696 6.607723261980873 1 2 19.823169785942618
pair_coeff 12 12 wf/cut 0.200448 6.277850874229409 1 2 18.833552622688227
pair_coeff 12 13 wf/cut 0.375372 6.671405311072043 1 2 20.01421593321613
pair_coeff 12 14 wf/cut 0.296045 6.4532756440329795 1 2 19.35982693209894
pair_coeff 12 15 wf/cut 0.131024 5.84255485528308 1 2 17.52766456584924
pair_coeff 12 16 wf/cut 0.283933 6.307431677259977 1 2 18.92229503177993
pair_coeff 12 17 wf/cut 0.197148 6.100591694847331 1 2 18.301775084541994
pair_coeff 12 18 wf/cut 0.139562 6.040345112977554 1 2 18.12103533893266
pair_coeff 12 19 wf/cut 0.134879 5.998852825433778 1 2 17.99655847630133
pair_coeff 12 20 wf/cut 0.100421 6.367152767929573 1 2 19.101458303788718
pair_coeff 12 21 wf/cut 0.113953 6.365699666568734 1 2 19.0970989997062
pair_coeff 12 22 wf/cut 0.133906 5.487109605448974 1 2 16.46132881634692
pair_coeff 12 23 wf/cut 0.109282 6.460110665288058 1 2 19.380331995864175
pair_coeff 12 24 wf/cut 0.110929 6.07371622854753 1 2 18.22114868564259
pair_coeff 12 25 wf/cut 0.206499 6.559327404195954 1 2 19.67798221258786
pair_coeff 12 26 wf/cut 0.117529 5.770434344200525 1 2 17.311303032601575
pair_coeff 12 27 wf/cut 0.137634 6.050878049577443 1 2 18.15263414873233
pair_coeff 12 28 wf/cut 0.140662 6.22811906216779 1 2 18.68435718650337
pair_coeff 12 29 wf/cut 0.247000 6.506235094735004 1 2 19.518705284205012
pair_coeff 12 30 wf/cut 0.102599 6.199847722340906 1 2 18.59954316702272
pair_coeff 12 31 wf/cut 0.104091 6.366663725733202 1 2 19.099991177199605
pair_coeff 12 32 wf/cut 0.170140 6.278875223812024 1 2 18.836625671436074
pair_coeff 12 33 wf/cut 0.292724 6.6723319742793255 1 2 20.016995922837978
pair_coeff 12 34 wf/cut 0.237360 6.454265231889239 1 2 19.362795695667717
pair_coeff 12 35 wf/cut 0.121659 5.8431832590102974 1 2 17.529549777030894
pair_coeff 12 36 wf/cut 0.228826 6.308421039847022 1 2 18.925263119541064
pair_coeff 12 37 wf/cut 0.167940 6.10158175427316 1 2 18.30474526281948
pair_coeff 12 38 wf/cut 0.127717 6.041063379946771 1 2 18.123190139840315
pair_coeff 12 39 wf/cut 0.124412 5.999536872422517 1 2 17.998610617267552
pair_coeff 12 40 wf/cut 0.100421 6.367152767929573 1 2 19.101458303788718
pair_coeff 13 13 wf/cut 0.550297 7.066547961746265 1 2 21.199643885238793
pair_coeff 13 14 wf/cut 0.470970 6.84798437757724 1 2 20.54395313273172
pair_coeff 13 15 wf/cut 0.305948 6.234139720557474 1 2 18.702419161672424
pair_coeff 13 16 wf/cut 0.458857 6.702091518082294 1 2 20.10627455424688
pair_coeff 13 17 wf/cut 0.372073 6.494164476750084 1 2 19.48249343025025
pair_coeff 13 18 wf/cut 0.314487 6.432174788842087 1 2 19.29652436652626
pair_coeff 13 19 wf/cut 0.309804 6.390531854157171 1 2 19.171595562471513
pair_coeff 13 20 wf/cut 0.275346 6.756032732095156 1 2 20.268098196285468
pair_coeff 13 21 wf/cut 0.288877 6.755817014102551 1 2 20.267451042307652
pair_coeff 13 22 wf/cut 0.308830 5.879425000161095 1 2 17.638275000483283
pair_coeff 13 23 wf/cut 0.284207 6.8497445004881925 1 2 20.549233501464578
pair_coeff 13 24 wf/cut 0.285853 6.4638463520895115 1 2 19.391539056268535
pair_coeff 13 25 wf/cut 0.381424 6.952910842994874 1 2 20.85873252898462
pair_coeff 13 26 wf/cut 0.292454 6.1613130283141055 1 2 18.483939084942318
pair_coeff 13 27 wf/cut 0.312558 6.442631932062835 1 2 19.327895796188507
pair_coeff 13 28 wf/cut 0.315587 6.619890395721167 1 2 19.8596711871635
pair_coeff 13 29 wf/cut 0.421925 6.900441239237516 1 2 20.701323717712548
pair_coeff 13 30 wf/cut 0.277524 6.589134834507833 1 2 19.7674045035235
pair_coeff 13 31 wf/cut 0.279016 6.755970194682537 1 2 20.267910584047613
pair_coeff 13 32 wf/cut 0.345065 6.671688068448729 1 2 20.015064205346185
pair_coeff 13 33 wf/cut 0.467649 7.066966231238362 1 2 21.200898693715086
pair_coeff 13 34 wf/cut 0.412285 6.848368288265007 1 2 20.54510486479502
pair_coeff 13 35 wf/cut 0.296584 6.23425905911194 1 2 18.70277717733582
pair_coeff 13 36 wf/cut 0.403751 6.702459807412386 1 2 20.10737942223716
pair_coeff 13 37 wf/cut 0.342865 6.494438889291505 1 2 19.483316667874515
pair_coeff 13 38 wf/cut 0.302642 6.4323262444775215 1 2 19.296978733432564
pair_coeff 13 39 wf/cut 0.299337 6.3906653903753785 1 2 19.171996171126136
pair_coeff 13 40 wf/cut 0.275346 6.756032732095156 1 2 20.268098196285468
pair_coeff 14 14 wf/cut 0.391642 6.629549396410893 1 2 19.88864818923268
pair_coeff 14 15 wf/cut 0.226621 6.016400811210637 1 2 18.049202433631912
pair_coeff 14 16 wf/cut 0.379530 6.483674128071082 1 2 19.451022384213246
pair_coeff 14 17 wf/cut 0.292745 6.276026354822916 1 2 18.828079064468746
pair_coeff 14 18 wf/cut 0.235159 6.2144055979415755 1 2 18.643216793824728
pair_coeff 14 19 wf/cut 0.230476 6.172787382997035 1 2 18.518362148991105
pair_coeff 14 20 wf/cut 0.196018 6.538787910119839 1 2 19.616363730359517
pair_coeff 14 21 wf/cut 0.209550 6.538369107168012 1 2 19.615107321504034
pair_coeff 14 22 wf/cut 0.229503 5.661533193978743 1 2 16.98459958193623
pair_coeff 14 23 wf/cut 0.204879 6.632390006238709 1 2 19.89717001871613
pair_coeff 14 24 wf/cut 0.206526 6.246381672050424 1 2 18.73914501615127
pair_coeff 14 25 wf/cut 0.302096 6.734778137463742 1 2 20.204334412391226
pair_coeff 14 26 wf/cut 0.213126 5.94370434405314 1 2 17.831113032159422
pair_coeff 14 27 wf/cut 0.233231 6.2248725061501835 1 2 18.67461751845055
pair_coeff 14 28 wf/cut 0.236259 6.402145618033878 1 2 19.206436854101636
pair_coeff 14 29 wf/cut 0.342598 6.6821466956694 1 2 20.0464400870082
pair_coeff 14 30 wf/cut 0.198196 6.3718164337361864 1 2 19.11544930120856
pair_coeff 14 31 wf/cut 0.199688 6.538652708676239 1 2 19.61595812602872
pair_coeff 14 32 wf/cut 0.265737 6.453725824442914 1 2 19.361177473328745
pair_coeff 14 33 wf/cut 0.388321 6.848555261309869 1 2 20.545665783929607
pair_coeff 14 34 wf/cut 0.332957 6.630097176272377 1 2 19.89029152881713
pair_coeff 14 35 wf/cut 0.217256 6.0166118728379825 1 2 18.049835618513946
pair_coeff 14 36 wf/cut 0.324423 6.484210545760694 1 2 19.45263163728208
pair_coeff 14 37 wf/cut 0.263537 6.276464594313065 1 2 18.829393782939196
pair_coeff 14 38 wf/cut 0.223314 6.2146578822218475 1 2 18.643973646665543
pair_coeff 14 39 wf/cut 0.220009 6.173021960210248 1 2 18.51906588063074
pair_coeff 14 40 wf/cut 0.196018 6.538787910119839 1 2 19.616363730359517
pair_coeff 15 15 wf/cut 0.061600 5.412669704115792 1 2 16.238009112347374
pair_coeff 15 16 wf/cut 0.214509 5.870633388669294 1 2 17.61190016600788
pair_coeff 15 17 wf/cut 0.127724 5.665328065098679 1 2 16.99598419529604
pair_coeff 15 18 wf/cut 0.070138 5.60931576883087 1 2 16.82794730649261
pair_coeff 15 19 wf/cut 0.065455 5.568478936337624 1 2 16.705436809012873
pair_coeff 15 20 wf/cut 0.030997 5.95253426830798 1 2 17.857602804923943
pair_coeff 15 21 wf/cut 0.044529 5.941730116730399 1 2 17.8251903501912
pair_coeff 15 22 wf/cut 0.064482 5.055066526249052 1 2 15.165199578747156
pair_coeff 15 23 wf/cut 0.039858 6.0388189375203165 1 2 18.116456812560948
pair_coeff 15 24 wf/cut 0.041505 5.650569731939204 1 2 16.951709195817614
pair_coeff 15 25 wf/cut 0.137075 6.123955851741878 1 2 18.371867555225634
pair_coeff 15 26 wf/cut 0.048105 5.343933138992498 1 2 16.031799416977496
pair_coeff 15 27 wf/cut 0.068210 5.620115241697351 1 2 16.860345725092053
pair_coeff 15 28 wf/cut 0.071238 5.79714638380999 1 2 17.39143915142997
pair_coeff 15 29 wf/cut 0.177576 6.069943102760143 1 2 18.20982930828043
pair_coeff 15 30 wf/cut 0.033175 5.7826589372196375 1 2 17.347976811658913
pair_coeff 15 31 wf/cut 0.034667 5.948302390882524 1 2 17.84490717264757
pair_coeff 15 32 wf/cut 0.100716 5.845003436795657 1 2 17.53501031038697
pair_coeff 15 33 wf/cut 0.223300 6.235536027214636 1 2 18.706608081643907
pair_coeff 15 34 wf/cut 0.167936 6.018117533790267 1 2 18.054352601370802
pair_coeff 15 35 wf/cut 0.052235 5.415473890209146 1 2 16.246421670627438
pair_coeff 15 36 wf/cut 0.159402 5.872398100194439 1 2 17.617194300583318
pair_coeff 15 37 wf/cut 0.098516 5.667732143982081 1 2 17.003196431946243
pair_coeff 15 38 wf/cut 0.058293 5.612162941341123 1 2 16.83648882402337
pair_coeff 15 39 wf/cut 0.054988 5.571364187563539 1 2 16.714092562690617
pair_coeff 15 40 wf/cut 0.030997 5.95253426830798 1 2 17.857602804923943
pair_coeff 16 16 wf/cut 0.027216 6.337782403912046 1 2 19.01334721173614
pair_coeff 16 17 wf/cut 0.280633 6.130180422228775 1 2 18.390541266686323
pair_coeff 16 18 wf/cut 0.223047 6.068649252074198 1 2 18.205947756222592
pair_coeff 16 19 wf/cut 0.218364 6.027019005823624 1 2 18.081057017470872
pair_coeff 16 20 wf/cut 0.183906 6.393147480752069 1 2 19.179442442256207
pair_coeff 16 21 wf/cut 0.197438 6.392683938124808 1 2 19.178051814374424
pair_coeff 16 22 wf/cut 0.217391 5.515750877499212 1 2 16.547252632497635
pair_coeff 16 23 wf/cut 0.192767 6.486724075272986 1 2 19.46017222581896
pair_coeff 16 24 wf/cut 0.194414 6.100672500483568 1 2 18.302017501450702
pair_coeff 16 25 wf/cut 0.289984 6.588935233441612 1 2 19.766805700324838
pair_coeff 16 26 wf/cut 0.201014 5.79796325726322 1 2 17.39388977178966
pair_coeff 16 27 wf/cut 0.221118 6.0791010484529915 1 2 18.237303145358975
pair_coeff 16 28 wf/cut 0.224147 6.256376087421608 1 2 18.769128262264825
pair_coeff 16 29 wf/cut 0.330485 6.536274979404401 1 2 19.608824938213203
pair_coeff 16 30 wf/cut 0.186084 6.226140636452508 1 2 18.678421909357525
pair_coeff 16 31 wf/cut 0.187576 6.392997387325535 1 2 19.178992161976602
pair_coeff 16 32 wf/cut 0.253625 6.307912958718467 1 2 18.9237388761554
pair_coeff 16 33 wf/cut 0.376209 6.702684222295407 1 2 20.10805266688622
pair_coeff 16 34 wf/cut 0.320845 6.484248553549719 1 2 19.452745660649157
pair_coeff 16 35 wf/cut 0.205144 5.870864049052838 1 2 17.612592147158516
pair_coeff 16 36 wf/cut 0.023134 6.338345846056568 1 2 19.015037538169704
pair_coeff 16 37 wf/cut 0.251425 6.130649043241044 1 2 18.391947129723132
pair_coeff 16 38 wf/cut 0.211202 6.0689241564117395 1 2 18.20677246923522
pair_coeff 16 39 wf/cut 0.207897 6.027275074473145 1 2 18.081825223419436
pair_coeff 16 40 wf/cut 0.183906 6.393147480752069 1 2 19.179442442256207
pair_coeff 17 17 wf/cut 0.193849 5.9233491242788805 1 2 17.770047372836643
pair_coeff 17 18 wf/cut 0.136263 5.8630821184928195 1 2 17.58924635547846
pair_coeff 17 19 wf/cut 0.131580 5.821644218417775 1 2 17.464932655253325
pair_coeff 17 20 wf/cut 0.097122 6.1899864646586105 1 2 18.569959393975832
pair_coeff 17 21 wf/cut 0.110653 6.188546099325202 1 2 18.565638297975607
pair_coeff 17 22 wf/cut 0.130606 5.30983190747035 1 2 15.929495722411051
pair_coeff 17 23 wf/cut 0.105983 6.282921319282791 1 2 18.848763957848373
pair_coeff 17 24 wf/cut 0.107629 5.896489952968157 1 2 17.68946985890447
pair_coeff 17 25 wf/cut 0.203200 6.382089400238762 1 2 19.146268200716285
pair_coeff 17 26 wf/cut 0.114230 5.59320394576633 1 2 16.77961183729899
pair_coeff 17 27 wf/cut 0.134334 5.873649240456693 1 2 17.62094772137008
pair_coeff 17 28 wf/cut 0.137363 6.050910374214647 1 2 18.152731122643942
pair_coeff 17 29 wf/cut 0.243701 6.328963417719822 1 2 18.986890253159466
pair_coeff 17 30 wf/cut 0.099300 6.022666584916778 1 2 18.067999754750335
pair_coeff 17 31 wf/cut 0.100792 6.189544117007458 1 2 18.568632351022373
pair_coeff 17 32 wf/cut 0.166841 6.101625831837799 1 2 18.304877495513395
pair_coeff 17 33 wf/cut 0.289424 6.495083547619462 1 2 19.485250642858386
pair_coeff 17 34 wf/cut 0.234061 6.277022750655092 1 2 18.831068251965277
pair_coeff 17 35 wf/cut 0.118359 5.665971807159278 1 2 16.997915421477835
pair_coeff 17 36 wf/cut 0.225527 6.131165252735328 1 2 18.393495758205983
pair_coeff 17 37 wf/cut 0.164641 5.924348407080925 1 2 17.773045221242775
pair_coeff 17 38 wf/cut 0.124417 5.863848431499796 1 2 17.591545294499387
pair_coeff 17 39 wf/cut 0.121113 5.822344488616284 1 2 17.46703346584885
pair_coeff 17 40 wf/cut 0.097122 6.1899864646586105 1 2 18.569959393975832
pair_coeff 18 18 wf/cut 0.078677 5.806155150598376 1 2 17.41846545179513
pair_coeff 18 19 wf/cut 0.073994 5.765149033334852 1 2 17.29544710000456
pair_coeff 18 20 wf/cut 0.039536 6.143860896897243 1 2 18.431582690691727
pair_coeff 18 21 wf/cut 0.053067 6.136530836242518 1 2 18.409592508727556
pair_coeff 18 22 wf/cut 0.073020 5.2521394224496145 1 2 15.756418267348844
pair_coeff 18 23 wf/cut 0.048396 6.232722071931244 1 2 18.698166215793734
pair_coeff 18 24 wf/cut 0.050043 5.845049472828402 1 2 17.535148418485207
pair_coeff 18 25 wf/cut 0.145613 6.3217567788528175 1 2 18.965270336558454
pair_coeff 18 26 wf/cut 0.056644 5.539473279208256 1 2 16.618419837624767
pair_coeff 18 27 wf/cut 0.076748 5.816985496228361 1 2 17.450956488685083
pair_coeff 18 28 wf/cut 0.079776 5.993977654615634 1 2 17.9819329638469
pair_coeff 18 29 wf/cut 0.186115 6.267859616819192 1 2 18.803578850457576
pair_coeff 18 30 wf/cut 0.041714 5.974983307333975 1 2 17.924949922001925
pair_coeff 18 31 wf/cut 0.043205 6.1411099770057245 1 2 18.42332993101717
pair_coeff 18 32 wf/cut 0.109254 6.042493928204347 1 2 18.12748178461304
pair_coeff 18 33 wf/cut 0.231838 6.433519247230287 1 2 19.300557741690863
pair_coeff 18 34 wf/cut 0.176474 6.216033392034327 1 2 18.648100176102982
pair_coeff 18 35 wf/cut 0.060773 5.611389850569513 1 2 16.834169551708538
pair_coeff 18 36 wf/cut 0.167940 6.070294170144763 1 2 18.21088251043429
pair_coeff 18 37 wf/cut 0.107055 5.865217375098184 1 2 17.595652125294553
pair_coeff 18 38 wf/cut 0.066831 5.808437279092397 1 2 17.425311837277192
pair_coeff 18 39 wf/cut 0.063527 5.767428643819603 1 2 17.302285931458808
pair_coeff 18 40 wf/cut 0.039536 6.143860896897243 1 2 18.431582690691727
pair_coeff 19 19 wf/cut 0.069311 5.724362787504792 1 2 17.173088362514378
pair_coeff 19 20 wf/cut 0.034853 6.10586575299424 1 2 18.31759725898272
pair_coeff 19 21 wf/cut 0.048384 6.0967512192398505 1 2 18.290253657719553
pair_coeff 19 22 wf/cut 0.068337 5.211108138159037 1 2 15.633324414477112
pair_coeff 19 23 wf/cut 0.043714 6.1934329156331 1 2 18.5802987468993
pair_coeff 19 24 wf/cut 0.045360 5.805442925019495 1 2 17.416328775058485
pair_coeff 19 25 wf/cut 0.140930 6.280274061428144 1 2 18.84082218428443
pair_coeff 19 26 wf/cut 0.051961 5.499319146540279 1 2 16.497957439620837
pair_coeff 19 27 wf/cut 0.072065 5.776024303801226 1 2 17.328072911403677
pair_coeff 19 28 wf/cut 0.075093 5.953096206763187 1 2 17.85928862028956
pair_coeff 19 29 wf/cut 0.181432 6.226290621468162 1 2 18.678871864404485
pair_coeff 19 30 wf/cut 0.037031 5.936496588820257 1 2 17.80948976646077
pair_coeff 19 31 wf/cut 0.038522 6.10236911417194 1 2 18.30710734251582
pair_coeff 19 32 wf/cut 0.104571 6.001202451726246 1 2 18.003607355178737
pair_coeff 19 33 wf/cut 0.227155 6.391918936768799 1 2 19.175756810306396
pair_coeff 19 34 wf/cut 0.171791 6.174477574070478 1 2 18.52343272221143
pair_coeff 19 35 wf/cut 0.056090 5.571011278043507 1 2 16.71303383413052
pair_coeff 19 36 wf/cut 0.163258 6.028753613252821 1 2 18.086260839758463
pair_coeff 19 37 wf/cut 0.102372 5.823949131867462 1 2 17.471847395602385
pair_coeff 19 38 wf/cut 0.062148 5.767856883865312 1 2 17.303570651595933
pair_coeff 19 39 wf/cut 0.058844 5.726983480603789 1 2 17.18095044181137
pair_coeff 19 40 wf/cut 0.034853 6.10586575299424 1 2 18.31759725898272
pair_coeff 20 21 wf/cut 0.013926 6.5199210046589675 1 2 19.5597630139769
pair_coeff 20 22 wf/cut 0.033879 5.587459907599181 1 2 16.76237972279754
pair_coeff 20 23 wf/cut 0.009256 6.649574443493311 1 2 19.948723330479933
pair_coeff 20 24 wf/cut 0.010902 6.242374503621665 1 2 18.727123510864995
pair_coeff 20 25 wf/cut 0.106472 6.648355967009086 1 2 19.945067901027258
pair_coeff 20 26 wf/cut 0.017503 5.903567074401621 1 2 17.71070122320486
pair_coeff 20 27 wf/cut 0.037607 6.155943831058615 1 2 18.467831493175847
pair_coeff 20 28 wf/cut 0.040635 6.331503643570952 1 2 18.994510930712856
pair_coeff 20 29 wf/cut 0.146974 6.593018960515583 1 2 19.77905688154675
pair_coeff 20 32 wf/cut 0.070113 6.372029116976672 1 2 19.116087350930016
pair_coeff 20 33 wf/cut 0.192697 6.757970683221281 1 2 20.273912049663842
pair_coeff 20 34 wf/cut 0.137333 6.5414250271565235 1 2 19.62427508146957
pair_coeff 20 35 wf/cut 0.021632 5.967018638311549 1 2 17.901055914934645
pair_coeff 20 36 wf/cut 0.128800 6.395882535691026 1 2 19.187647607073078
pair_coeff 20 37 wf/cut 0.067914 6.194931490620908 1 2 18.584794471862722
pair_coeff 20 38 wf/cut 0.027690 6.155796177211015 1 2 18.467388531633045
pair_coeff 20 39 wf/cut 0.024386 6.119051758363574 1 2 18.357155275090722
pair_coeff 21 21 wf/cut 0.027458 6.480069420606985 1 2 19.440208261820956
pair_coeff 21 22 wf/cut 0.047411 5.581642130693901 1 2 16.7449263920817
pair_coeff 21 23 wf/cut 0.022787 6.583002517343036 1 2 19.74900755202911
pair_coeff 21 24 wf/cut 0.024433 6.191552500203247 1 2 18.574657500609742
pair_coeff 21 25 wf/cut 0.120004 6.646999738911693 1 2 19.94099921673508
pair_coeff 21 26 wf/cut 0.031034 5.878598106878971 1 2 17.63579432063691
pair_coeff 21 27 wf/cut 0.051138 6.1478586796466335 1 2 18.443576038939902
pair_coeff 21 28 wf/cut 0.054167 6.324516380690015 1 2 18.973549142070045
pair_coeff 21 29 wf/cut 0.160505 6.592313711480712 1 2 19.776941134442136
pair_coeff 21 30 wf/cut 0.016104 6.340969704607503 1 2 19.02290911382251
pair_coeff 21 31 wf/cut 0.017596 6.5013402123206046 1 2 19.504020636961812
pair_coeff 21 32 wf/cut 0.083645 6.369348945541728 1 2 19.108046836625185
pair_coeff 21 33 wf/cut 0.206229 6.757540572332879 1 2 20.27262171699864
pair_coeff 21 34 wf/cut 0.150865 6.540596793679068 1 2 19.621790381037204
pair_coeff 21 35 wf/cut 0.035164 5.947844531230358 1 2 17.843533593691074
pair_coeff 21 36 wf/cut 0.142331 6.39500222582037 1 2 19.18500667746111
pair_coeff 21 37 wf/cut 0.081445 6.192166186380409 1 2 18.57649855914123
pair_coeff 21 38 wf/cut 0.041222 6.142414836822247 1 2 18.42724451046674
pair_coeff 21 39 wf/cut 0.037917 6.102763659737872 1 2 18.308290979213616
pair_coeff 21 40 wf/cut 0.013926 6.5199210046589675 1 2 19.5597630139769
pair_coeff 22 22 wf/cut 0.067364 4.698227190160832 1 2 14.094681570482496
pair_coeff 22 23 wf/cut 0.042740 5.6772849911904 1 2 17.0318549735712
pair_coeff 22 24 wf/cut 0.044387 5.289807269665101 1 2 15.869421808995302
pair_coeff 22 25 wf/cut 0.139957 5.768554114508845 1 2 17.305662343526535
pair_coeff 22 26 wf/cut 0.050987 4.984686027270456 1 2 14.954058081811368
pair_coeff 22 27 wf/cut 0.071091 5.262912382415455 1 2 15.788737147246366
pair_coeff 22 28 wf/cut 0.074120 5.439975772862831 1 2 16.319927318588494
pair_coeff 22 29 wf/cut 0.180458 5.714850862757114 1 2 17.144552588271342
pair_coeff 22 30 wf/cut 0.036057 5.418902704026212 1 2 16.256708112078634
pair_coeff 22 31 wf/cut 0.037549 5.585489758070483 1 2 16.756469274211447
pair_coeff 22 32 wf/cut 0.103598 5.489037080971375 1 2 16.467111242914125
pair_coeff 22 33 wf/cut 0.226182 5.8806376350894025 1 2 17.641912905268207
pair_coeff 22 34 wf/cut 0.170818 5.662987686021554 1 2 16.988963058064662
pair_coeff 22 35 wf/cut 0.055117 5.056931123036382 1 2 15.170793369109145
pair_coeff 22 36 wf/cut 0.162284 5.517215784587296 1 2 16.551647353761886
pair_coeff 22 37 wf/cut 0.101398 5.311696859115723 1 2 15.935090577347168
pair_coeff 22 38 wf/cut 0.061175 5.254183030641423 1 2 15.762549091924269
pair_coeff 22 39 wf/cut 0.057870 5.213062357159386 1 2 15.639187071478158
pair_coeff 22 40 wf/cut 0.033879 5.587459907599181 1 2 16.76237972279754
pair_coeff 23 23 wf/cut 0.013420 6.688853536606121 1 2 20.066560609818364
pair_coeff 23 24 wf/cut 0.019763 6.29527868599085 1 2 18.885836057972547
pair_coeff 23 25 wf/cut 0.085206 6.741392723436803 1 2 20.22417817031041
pair_coeff 23 26 wf/cut 0.026364 5.978305270632397 1 2 17.93491581189719
pair_coeff 23 27 wf/cut 0.000342 6.244253298502354 1 2 18.732759895507062
pair_coeff 23 28 wf/cut 0.000366 6.4204818546224995 1 2 19.261445563867497
pair_coeff 23 29 wf/cut 0.071890 6.686432938070228 1 2 20.059298814210685
pair_coeff 23 30 wf/cut 0.011434 6.460111302128625 1 2 19.380333906385875
pair_coeff 23 31 wf/cut 0.012925 6.617996254538358 1 2 19.853988763615074
pair_coeff 23 32 wf/cut 0.078974 6.4641118645001 1 2 19.3923355935003
pair_coeff 23 33 wf/cut 0.073358 6.85155566549562 1 2 20.55466699648686
pair_coeff 23 34 wf/cut 0.080693 6.634779187210656 1 2 19.90433756163197
pair_coeff 23 35 wf/cut 0.030493 6.046847416569171 1 2 18.14054224970751
pair_coeff 23 36 wf/cut 0.061166 6.489185414364156 1 2 19.467556243092467
pair_coeff 23 37 wf/cut 0.076775 6.2869559403051 1 2 18.860867820915303
pair_coeff 23 38 wf/cut 0.036551 6.240136548485556 1 2 18.72040964545667
pair_coeff 23 39 wf/cut 0.033247 6.2011686854634664 1 2 18.6035060563904
pair_coeff 23 40 wf/cut 0.009256 6.649574443493311 1 2 19.948723330479933
pair_coeff 24 24 wf/cut 0.021409 5.902825373061459 1 2 17.708476119184375
pair_coeff 24 25 wf/cut 0.116980 6.355020618222843 1 2 19.065061854668528
pair_coeff 24 26 wf/cut 0.028010 5.588184701124206 1 2 16.764554103372618
pair_coeff 24 27 wf/cut 0.048114 5.856453272809193 1 2 17.56935981842758
pair_coeff 24 28 wf/cut 0.051143 6.03282984385001 1 2 18.09848953155003
pair_coeff 24 29 wf/cut 0.157481 6.300272873273843 1 2 18.90081861982153
pair_coeff 24 30 wf/cut 0.013080 6.05885560137348 1 2 18.17656680412044
pair_coeff 24 31 wf/cut 0.014572 6.219293562690735 1 2 18.657880688072204
pair_coeff 24 32 wf/cut 0.080621 6.077365593674358 1 2 18.232096781023074
pair_coeff 24 33 wf/cut 0.203205 6.465539023765016 1 2 19.396617071295047
pair_coeff 24 34 wf/cut 0.147841 6.248599086448351 1 2 18.745797259345053
pair_coeff 24 35 wf/cut 0.032140 5.6574738585901345 1 2 16.972421575770404
pair_coeff 24 36 wf/cut 0.139307 6.102951668547555 1 2 18.308855005642666
pair_coeff 24 37 wf/cut 0.078421 5.900160965208208 1 2 17.700482895624624
pair_coeff 24 38 wf/cut 0.038198 5.85153222065546 1 2 17.55459666196638
pair_coeff 24 39 wf/cut 0.034893 5.812153931855011 1 2 17.436461795565034
pair_coeff 24 40 wf/cut 0.010902 6.242374503621665 1 2 18.727123510864995
pair_coeff 25 25 wf/cut 0.062978 6.840818860381698 1 2 20.522456581145093
pair_coeff 25 26 wf/cut 0.123581 6.051811079871612 1 2 18.155433239614837
pair_coeff 25 27 wf/cut 0.001064 6.332285213812248 1 2 18.996855641436742
pair_coeff 25 28 wf/cut 0.001085 6.509542326637676 1 2 19.528626979913028
pair_coeff 25 29 wf/cut 0.425474 6.7877218996841355 1 2 20.363165699052406
pair_coeff 25 30 wf/cut 0.108651 6.481102402445426 1 2 19.44330720733628
pair_coeff 25 31 wf/cut 0.110142 6.647901648052044 1 2 19.94370494415613
pair_coeff 25 32 wf/cut 0.176191 6.560327886240045 1 2 19.680983658720134
pair_coeff 25 33 wf/cut 0.484160 6.953839371357665 1 2 20.861518114072993
pair_coeff 25 34 wf/cut 0.381459 6.735769622233203 1 2 20.20730886669961
pair_coeff 25 35 wf/cut 0.127710 6.1245540687340725 1 2 18.37366220620222
pair_coeff 25 36 wf/cut 0.086889 6.589926019306955 1 2 19.769778057920867
pair_coeff 25 37 wf/cut 0.173991 6.38305646617526 1 2 19.14916939852578
pair_coeff 25 38 wf/cut 0.133768 6.322442926130092 1 2 18.967328778390275
pair_coeff 25 39 wf/cut 0.130463 6.280926022691235 1 2 18.842778068073706
pair_coeff 25 40 wf/cut 0.106472 6.648355967009086 1 2 19.945067901027258
pair_coeff 26 26 wf/cut 0.034611 5.278051554722805 1 2 15.834154664168416
pair_coeff 26 27 wf/cut 0.054715 5.550632394717641 1 2 16.651897184152922
pair_coeff 26 28 wf/cut 0.057743 5.727313013729271 1 2 17.18193904118781
pair_coeff 26 29 wf/cut 0.164082 5.997401234701861 1 2 17.99220370410558
pair_coeff 26 30 wf/cut 0.019681 5.729200436106479 1 2 17.187601308319437
pair_coeff 26 31 wf/cut 0.021172 5.893502125092778 1 2 17.680506375278334
pair_coeff 26 32 wf/cut 0.087222 5.77355467816977 1 2 17.32066403450931
pair_coeff 26 33 wf/cut 0.209805 6.162846524069043 1 2 18.48853957220713
pair_coeff 26 34 wf/cut 0.154442 5.945670315140756 1 2 17.837010945422268
pair_coeff 26 35 wf/cut 0.038740 5.3486854588231765 1 2 16.04605637646953
pair_coeff 26 36 wf/cut 0.145908 5.799973083941243 1 2 17.39991925182373
pair_coeff 26 37 wf/cut 0.085022 5.596251927245512 1 2 16.788755781736537
pair_coeff 26 38 wf/cut 0.044798 5.544164768287125 1 2 16.632494304861375
pair_coeff 26 39 wf/cut 0.041494 5.504054682438701 1 2 16.512164047316105
pair_coeff 26 40 wf/cut 0.017503 5.903567074401621 1 2 17.71070122320486
pair_coeff 27 27 wf/cut 0.055422 5.8277356350076115 1 2 17.483206905022833
pair_coeff 27 28 wf/cut 0.057461 6.0048083393750415 1 2 18.014425018125124
pair_coeff 27 29 wf/cut 0.184186 6.278368151196274 1 2 18.83510445358882
pair_coeff 27 30 wf/cut 0.039785 5.986861716352022 1 2 17.960585149056065
pair_coeff 27 31 wf/cut 0.041277 6.152881477214971 1 2 18.458644431644913
pair_coeff 27 32 wf/cut 0.107326 6.053140955180234 1 2 18.159422865540705
pair_coeff 27 33 wf/cut 0.229910 6.444000765960297 1 2 19.33200229788089
pair_coeff 27 34 wf/cut 0.174546 6.226529663564308 1 2 18.679588990692924
pair_coeff 27 35 wf/cut 0.058845 5.622457081906772 1 2 16.867371245720314
pair_coeff 27 36 wf/cut 0.001228 6.080799532766481 1 2 18.242398598299445
pair_coeff 27 37 wf/cut 0.105126 5.875867449320084 1 2 17.627602347960252
pair_coeff 27 38 wf/cut 0.064903 5.819413545043322 1 2 17.458240635129968
pair_coeff 27 39 wf/cut 0.061598 5.778457730344957 1 2 17.335373191034872
pair_coeff 27 40 wf/cut 0.037607 6.155943831058615 1 2 18.467831493175847
pair_coeff 28 28 wf/cut 0.059908 6.1818125994432265 1 2 18.54543779832968
pair_coeff 28 29 wf/cut 0.187215 6.4556028384801145 1 2 19.366808515440344
pair_coeff 28 30 wf/cut 0.042814 6.162677260323304 1 2 18.488031780969912
pair_coeff 28 31 wf/cut 0.044305 6.329122536684595 1 2 18.987367610053788
pair_coeff 28 32 wf/cut 0.110354 6.230341958421634 1 2 18.691025875264902
pair_coeff 28 33 wf/cut 0.232938 6.621259842822526 1 2 19.863779528467578
pair_coeff 28 34 wf/cut 0.177574 6.403800703379438 1 2 19.211402110138312
pair_coeff 28 35 wf/cut 0.061873 5.7993639894571976 1 2 17.39809196837159
pair_coeff 28 36 wf/cut 0.001252 6.258048801889918 1 2 18.774146405669754
pair_coeff 28 37 wf/cut 0.108154 6.053088642675554 1 2 18.159265928026663
pair_coeff 28 38 wf/cut 0.067931 5.9963870692049515 1 2 17.989161207614856
pair_coeff 28 39 wf/cut 0.064626 5.955407688864699 1 2 17.866223066594095
pair_coeff 28 40 wf/cut 0.040635 6.331503643570952 1 2 18.994510930712856
pair_coeff 29 29 wf/cut 0.293553 6.734901221669089 1 2 20.204703665007266
pair_coeff 29 30 wf/cut 0.149152 6.425928662140226 1 2 19.277785986420678
pair_coeff 29 31 wf/cut 0.150644 6.592808608254519 1 2 19.77842582476356
pair_coeff 29 32 wf/cut 0.216693 6.5069139355650485 1 2 19.520741806695145
pair_coeff 29 33 wf/cut 0.339277 6.901174934210456 1 2 20.703524802631367
pair_coeff 29 34 wf/cut 0.283913 6.682893550119813 1 2 20.048680650359437
pair_coeff 29 35 wf/cut 0.168212 6.070294170144763 1 2 18.21088251043429
pair_coeff 29 36 wf/cut 0.275379 6.53700493974828 1 2 19.61101481924484
pair_coeff 29 37 wf/cut 0.214493 6.329613164394258 1 2 18.988839493182773
pair_coeff 29 38 wf/cut 0.174270 6.268290266697097 1 2 18.80487080009129
pair_coeff 29 39 wf/cut 0.170965 6.226677571408917 1 2 18.68003271422675
pair_coeff 29 40 wf/cut 0.146974 6.593018960515583 1 2 19.77905688154675
pair_coeff 30 31 wf/cut 0.006243 6.436867325811939 1 2 19.310601977435816
pair_coeff 30 32 wf/cut 0.072292 6.2043654791136875 1 2 18.613096437341063
pair_coeff 30 33 wf/cut 0.194875 6.590992227279316 1 2 19.77297668183795
pair_coeff 30 34 wf/cut 0.139512 6.374322689731052 1 2 19.122968069193156
pair_coeff 30 35 wf/cut 0.023810 5.794680761693587 1 2 17.38404228508076
pair_coeff 30 36 wf/cut 0.130978 6.228734363673756 1 2 18.68620309102127
pair_coeff 30 37 wf/cut 0.070092 6.027237821338098 1 2 18.081713464014296
pair_coeff 30 38 wf/cut 0.029868 5.985230649978958 1 2 17.955691949936874
pair_coeff 30 39 wf/cut 0.026564 5.947631895281645 1 2 17.842895685844933
pair_coeff 31 31 wf/cut 0.007734 6.567831037515117 1 2 19.703493112545353
pair_coeff 31 32 wf/cut 0.073783 6.371180012524027 1 2 19.11354003757208
pair_coeff 31 33 wf/cut 0.196367 6.757844212311977 1 2 20.273532636935933
pair_coeff 31 34 wf/cut 0.141003 6.541152469250684 1 2 19.623457407752053
pair_coeff 31 35 wf/cut 0.025302 5.958948966149641 1 2 17.87684689844892
pair_coeff 31 36 wf/cut 0.132469 6.395617784448214 1 2 19.18685335334464
pair_coeff 31 37 wf/cut 0.071583 6.194052355515639 1 2 18.58215706654692
pair_coeff 31 38 wf/cut 0.031360 6.150442231391871 1 2 18.451326694175613
pair_coeff 31 39 wf/cut 0.028055 6.1123674095484715 1 2 18.337102228645414
pair_coeff 32 32 wf/cut 0.139832 6.280338147956703 1 2 18.841014443870108
pair_coeff 32 33 wf/cut 0.262416 6.672807379130834 1 2 20.018422137392502
pair_coeff 32 34 wf/cut 0.207052 6.454996866244807 1 2 19.364990598734423
pair_coeff 32 35 wf/cut 0.091351 5.846082838683163 1 2 17.53824851604949
pair_coeff 32 36 wf/cut 0.198518 6.309181376440496 1 2 18.92754412932149
pair_coeff 32 37 wf/cut 0.137633 6.103047888395006 1 2 18.30914366518502
pair_coeff 32 38 wf/cut 0.097409 6.043739153604026 1 2 18.131217460812078
pair_coeff 32 39 wf/cut 0.094104 6.002359484884067 1 2 18.007078454652202
pair_coeff 32 40 wf/cut 0.070113 6.372029116976672 1 2 19.116087350930016
pair_coeff 33 33 wf/cut 0.385000 7.067563273437359 1 2 21.202689820312077
pair_coeff 33 34 wf/cut 0.329636 6.849136659067028 1 2 20.547409977201085
pair_coeff 33 35 wf/cut 0.213935 6.235761878631987 1 2 18.70728563589596
pair_coeff 33 36 wf/cut 0.321102 6.703247958074066 1 2 20.109743874222197
pair_coeff 33 37 wf/cut 0.260216 6.49554680247315 1 2 19.48664040741945
pair_coeff 33 38 wf/cut 0.219993 6.433800819712532 1 2 19.3014024591376
pair_coeff 33 39 wf/cut 0.216688 6.3921696304391835 1 2 19.17650889131755
pair_coeff 33 40 wf/cut 0.192697 6.757970683221281 1 2 20.273912049663842
pair_coeff 34 34 wf/cut 0.274272 6.630885251270346 1 2 19.892655753811038
pair_coeff 34 35 wf/cut 0.158571 6.018506537122348 1 2 18.055519611367043
pair_coeff 34 36 wf/cut 0.265738 6.485029527646095 1 2 19.455088582938284
pair_coeff 34 37 wf/cut 0.204852 6.27772691468288 1 2 18.83318074404864
pair_coeff 34 38 wf/cut 0.164629 6.216488307385695 1 2 18.649464922157083
pair_coeff 34 39 wf/cut 0.161324 6.17490549231641 1 2 18.52471647694923
pair_coeff 34 40 wf/cut 0.137333 6.5414250271565235 1 2 19.62427508146957
pair_coeff 35 35 wf/cut 0.042870 5.4194558891562785 1 2 16.258367667468836
pair_coeff 35 36 wf/cut 0.150037 5.8728226163551005 1 2 17.6184678490653
pair_coeff 35 37 wf/cut 0.089151 5.6688305293155095 1 2 17.006491587946527
pair_coeff 35 38 wf/cut 0.048928 5.615420402551611 1 2 16.846261207654834
pair_coeff 35 39 wf/cut 0.045623 5.575027083025114 1 2 16.725081249075345
pair_coeff 35 40 wf/cut 0.021632 5.967018638311549 1 2 17.901055914934645
pair_coeff 36 36 wf/cut 0.019052 6.339149093005715 1 2 19.017447279017144
pair_coeff 36 37 wf/cut 0.196319 6.131909094415353 1 2 18.39572728324606
pair_coeff 36 38 wf/cut 0.156095 6.07081046198845 1 2 18.21243138596535
pair_coeff 36 39 wf/cut 0.152791 6.029219810679759 1 2 18.087659432039278
pair_coeff 36 40 wf/cut 0.128800 6.395882535691026 1 2 19.187647607073078
pair_coeff 37 37 wf/cut 0.135433 5.925773208988131 1 2 17.777319626964392
pair_coeff 37 38 wf/cut 0.095209 5.866481553533799 1 2 17.599444660601396
pair_coeff 37 39 wf/cut 0.091905 5.82512551794993 1 2 17.47537655384979
pair_coeff 37 40 wf/cut 0.067914 6.194931490620908 1 2 18.584794471862722
pair_coeff 38 38 wf/cut 0.054986 5.811826808320624 1 2 17.43548042496187
pair_coeff 38 39 wf/cut 0.051681 5.771184604473262 1 2 17.313553813419787
pair_coeff 38 40 wf/cut 0.027690 6.155796177211015 1 2 18.467388531633045
pair_coeff 39 39 wf/cut 0.048377 5.730699270006254 1 2 17.192097810018762
pair_coeff 39 40 wf/cut 0.024386 6.119051758363574 1 2 18.357155275090722
pair_coeff 40 40 wf/cut 0.000395 6.921680089176746 1 11 20.76504026753024
pair_coeff 20 40 wf/cut 0.000395 6.921680089176746 1 11 20.76504026753024
pair_coeff 20 20 wf/cut 0.000395 6.921680089176746 1 11 20.76504026753024
pair_coeff 10 20 wf/cut 0.002986 6.718011650959061 1 4 20.154034952877183
pair_coeff 10 40 wf/cut 0.002986 6.718011650959061 1 4 20.154034952877183
pair_coeff 20 30 wf/cut 0.002573 6.745752996427961 1 4 20.237258989283884
pair_coeff 20 31 wf/cut 0.004064 6.883184689300606 1 4 20.649554067901818
pair_coeff 30 40 wf/cut 0.002573 6.745752996427961 1 4 20.237258989283884
pair_coeff 31 40 wf/cut 0.004064 6.883184689300606 1 4 20.649554067901818
pair_coeff 3 3 coul/debye 35.
pair_coeff 3 5 coul/debye 35.
pair_coeff 3 7 coul/debye 35.
pair_coeff 3 8 coul/debye 35.
pair_coeff 3 16 coul/debye 35.
pair_coeff 3 23 coul/debye 35.
pair_coeff 3 25 coul/debye 35.
pair_coeff 3 36 coul/debye 35.
pair_coeff 5 5 coul/debye 35.
pair_coeff 5 7 coul/debye 35.
pair_coeff 5 8 coul/debye 35.
pair_coeff 5 16 coul/debye 35.
pair_coeff 5 23 coul/debye 35.
pair_coeff 5 25 coul/debye 35.
pair_coeff 5 27 coul/debye 35.
pair_coeff 5 28 coul/debye 35.
pair_coeff 5 36 coul/debye 35.
pair_coeff 7 7 coul/debye 35.
pair_coeff 7 8 coul/debye 35.
pair_coeff 7 16 coul/debye 35.
pair_coeff 7 23 coul/debye 35.
pair_coeff 7 25 coul/debye 35.
pair_coeff 7 27 coul/debye 35.
pair_coeff 7 28 coul/debye 35.
pair_coeff 7 36 coul/debye 35.
pair_coeff 8 8 coul/debye 35.
pair_coeff 8 16 coul/debye 35.
pair_coeff 8 23 coul/debye 35.
pair_coeff 8 25 coul/debye 35.
pair_coeff 8 27 coul/debye 35.
pair_coeff 8 28 coul/debye 35.
pair_coeff 8 36 coul/debye 35.
pair_coeff 16 16 coul/debye 35.
pair_coeff 16 23 coul/debye 35.
pair_coeff 16 25 coul/debye 35.
pair_coeff 16 27 coul/debye 35.
pair_coeff 16 28 coul/debye 35.
pair_coeff 16 36 coul/debye 35.
pair_coeff 23 23 coul/debye 35.
pair_coeff 23 25 coul/debye 35.
pair_coeff 23 36 coul/debye 35.
pair_coeff 25 25 coul/debye 35.
pair_coeff 25 27 coul/debye 35.
pair_coeff 25 28 coul/debye 35.
pair_coeff 25 36 coul/debye 35.
pair_coeff 27 27 coul/debye 35.
pair_coeff 27 28 coul/debye 35.
pair_coeff 27 36 coul/debye 35.
pair_coeff 28 28 coul/debye 35.
pair_coeff 28 36 coul/debye 35.
pair_coeff 36 36 coul/debye 35.
pair_coeff 3 27 coul/debye 35.
pair_coeff 3 28 coul/debye 35.
pair_coeff 23 27 coul/debye 35.
pair_coeff 23 28 coul/debye 35.

special_bonds fene
Finding 1-2 1-3 1-4 neighbors ...
  special bond factors lj:    0        1        1       
  special bond factors coul:  0        1        1       
     2 = max # of 1-2 neighbors
     6 = max # of special neighbors
  special bonds CPU = 0.000 seconds
neighbor  3.5 multi
neigh_modify  every 10 delay 0

comm_style    tiled

timer timeout 35:50:00
New timer settings: style=normal  mode=nosync  timeout=11:50:00

velocity      all create $T 494211
velocity      all create 320 494211
fix           fxnve   all nve
fix           fxlange all langevin $T $T 40000.0 32784
fix           fxlange all langevin 320 $T 40000.0 32784
fix           fxlange all langevin 320 320 40000.0 32784

dump          1 all custom 100000 $d-$T.xyz id mol type q xu yu zu
dump          1 all custom 100000 TIA_WT-$T.xyz id mol type q xu yu zu
dump          1 all custom 100000 TIA_WT-320.xyz id mol type q xu yu zu
dump_modify   1 sort id

#compute       rad all gyration
#compute       dis all pair/local dist
#compute       maximo all reduce max c_dis
#compute       mean all reduce ave c_dis

thermo        1000000
thermo_style  custom step pe temp  press ke lx ly lz pzz  spcpu density
thermo_modify flush yes

restart      10000000 restart$T
restart      10000000 restart320

####Minimization

timestep 0.01
run 2000

CITE-CITE-CITE-CITE-CITE-CITE-CITE-CITE-CITE-CITE-CITE-CITE-CITE

Your simulation uses code contributions which should be cited:

- neighbor multi command:

@Article{Intveld08,
 author =  {P.{\,}J.~in{\,}'t~Veld and S.{\,}J.~Plimpton and G.{\,}S.~Grest},
 title =   {Accurate and Efficient Methods for Modeling Colloidal
            Mixtures in an Explicit Solvent using Molecular Dynamics},
 journal = {Comp.~Phys.~Comm.},
 year =    2008,
 volume =  179,
 pages =   {320--329}
}

CITE-CITE-CITE-CITE-CITE-CITE-CITE-CITE-CITE-CITE-CITE-CITE-CITE

Neighbor list info ...
  update every 10 steps, delay 0 steps, check yes
  max neighbors/atom: 2000, page size: 100000
  master list distance cutoff = 38.5
  ghost atom cutoff = 38.5
  binsize = 8.7926654, bins = 35 35 35
  2 neighbor lists, perpetual/occasional/extra = 2 0 0
  (1) pair wf/cut, perpetual
      attributes: half, newton on
      pair build: half/multi/newton
      stencil: half/multi/3d/newton
      bin: standard
  (2) pair coul/debye, perpetual, skip from (1)
      attributes: half, newton on
      pair build: skip
      stencil: none
      bin: none
Per MPI rank memory allocation (min/avg/max) = 8.891 | 8.953 | 9.133 Mbytes
Step PotEng Temp Press KinEng Lx Ly Lz Pzz S/CPU Density 
       0   -13.356653          320   0.41360235    91.570485          300          300          300    0.2922908            0 0.00066940445 
    2000   -11.472947    313.51586   0.39525946    89.714998          300          300          300   0.29133592    41457.777 0.00066940445 
Loop time of 0.0482769 on 6 procs for 2000 steps with 97 atoms

Performance: 35.794 ns/day, 0.671 hours/ns, 41427.680 timesteps/s
98.9% CPU use with 6 MPI tasks x no OpenMP threads

MPI task timing breakdown:
Section |  min time  |  avg time  |  max time  |%varavg| %total
---------------------------------------------------------------
Pair    | 0.00054359 | 0.003343   | 0.016901   |  10.5 |  6.92
Bond    | 7.2241e-05 | 0.00043885 | 0.0021501  |   0.0 |  0.91
Neigh   | 0          | 0          | 0          |   0.0 |  0.00
Comm    | 0.017672   | 0.039329   | 0.044492   |   4.9 | 81.47
Output  | 2.0981e-05 | 3.1352e-05 | 5.5075e-05 |   0.0 |  0.06
Modify  | 0.00030136 | 0.0020477  | 0.010448   |   8.3 |  4.24
Other   |            | 0.003087   |            |       |  6.39

Nlocal:        16.1667 ave          96 max           0 min
Histogram: 5 0 0 0 0 0 0 0 0 1
Nghost:        39.5000 ave          57 max           0 min
Histogram: 1 0 0 0 1 0 0 0 1 3
Neighs:        73.5000 ave         436 max           0 min
Histogram: 5 0 0 0 0 0 0 0 0 1

Total # of neighbors = 441
Ave neighs/atom = 4.5463918
Ave special neighs/atom = 1.9793814
Neighbor list builds = 0
Dangerous builds = 0

timestep 0.1
run 2000
Per MPI rank memory allocation (min/avg/max) = 8.891 | 8.953 | 9.133 Mbytes
Step PotEng Temp Press KinEng Lx Ly Lz Pzz S/CPU Density 
    2000   -11.472947    313.51586   0.39525946    89.714998          300          300          300   0.29133592            0 0.00066940445 
    4000    3.2455424    265.16038   -0.1622533    75.877701          300          300          300  -0.11278553    41740.598 0.00066940445 
Loop time of 0.0479287 on 6 procs for 2000 steps with 97 atoms

Performance: 360.535 ns/day, 0.067 hours/ns, 41728.624 timesteps/s
99.5% CPU use with 6 MPI tasks x no OpenMP threads

MPI task timing breakdown:
Section |  min time  |  avg time  |  max time  |%varavg| %total
---------------------------------------------------------------
Pair    | 0.00052071 | 0.0033532  | 0.016841   |  10.4 |  7.00
Bond    | 6.9618e-05 | 0.00043937 | 0.0021641  |   0.0 |  0.92
Neigh   | 0          | 0          | 0          |   0.0 |  0.00
Comm    | 0.017462   | 0.039023   | 0.044199   |   4.9 | 81.42
Output  | 1.812e-05  | 2.4756e-05 | 3.2187e-05 |   0.0 |  0.05
Modify  | 0.00032473 | 0.0020392  | 0.010379   |   8.3 |  4.25
Other   |            | 0.00305    |            |       |  6.36

Nlocal:        16.1667 ave          96 max           0 min
Histogram: 5 0 0 0 0 0 0 0 0 1
Nghost:        39.5000 ave          57 max           0 min
Histogram: 1 0 0 0 1 0 0 0 1 3
Neighs:        73.5000 ave         436 max           0 min
Histogram: 5 0 0 0 0 0 0 0 0 1

Total # of neighbors = 441
Ave neighs/atom = 4.5463918
Ave special neighs/atom = 1.9793814
Neighbor list builds = 0
Dangerous builds = 0

timestep 1
run 2000
Per MPI rank memory allocation (min/avg/max) = 8.891 | 8.953 | 9.133 Mbytes
Step PotEng Temp Press KinEng Lx Ly Lz Pzz S/CPU Density 
    4000    3.2455424    265.16038   -0.1622533    75.877701          300          300          300  -0.11278553            0 0.00066940445 
    6000     11.36934    255.47346  -0.15529589    73.105714          300          300          300  0.057986084    42038.046 0.00066940445 
Loop time of 0.047586 on 6 procs for 2000 steps with 97 atoms

Performance: 3631.323 ns/day, 0.007 hours/ns, 42029.200 timesteps/s
99.8% CPU use with 6 MPI tasks x no OpenMP threads

MPI task timing breakdown:
Section |  min time  |  avg time  |  max time  |%varavg| %total
---------------------------------------------------------------
Pair    | 0.00050354 | 0.0033153  | 0.016458   |  10.2 |  6.97
Bond    | 6.3419e-05 | 0.00044366 | 0.0021646  |   0.0 |  0.93
Neigh   | 0.00028396 | 0.00029425 | 0.00030494 |   0.0 |  0.62
Comm    | 0.017264   | 0.038434   | 0.043498   |   4.8 | 80.77
Output  | 1.9073e-05 | 2.4756e-05 | 2.7895e-05 |   0.0 |  0.05
Modify  | 0.00032973 | 0.002047   | 0.010356   |   8.2 |  4.30
Other   |            | 0.003027   |            |       |  6.36

Nlocal:        16.1667 ave          95 max           0 min
Histogram: 5 0 0 0 0 0 0 0 0 1
Nghost:        38.8333 ave          58 max           0 min
Histogram: 1 0 0 0 1 0 0 0 3 1
Neighs:        73.8333 ave         431 max           0 min
Histogram: 5 0 0 0 0 0 0 0 0 1

Total # of neighbors = 443
Ave neighs/atom = 4.5670103
Ave special neighs/atom = 1.9793814
Neighbor list builds = 5
Dangerous builds = 0

####Collapse the IDR

timestep 10
run 1000000
Per MPI rank memory allocation (min/avg/max) = 8.892 | 8.974 | 9.133 Mbytes
Step PotEng Temp Press KinEng Lx Ly Lz Pzz S/CPU Density 
    6000     11.36934    255.47346  -0.15529589    73.105714          300          300          300  0.057986084            0 0.00066940445 
 1000000   -4.4935661    318.60112  0.027416294    91.170184          300          300          300  0.067385466    21662.876 0.00066940445 
 1006000   -5.9513542     312.5163   0.10858129    89.428967          300          300          300  0.074474753    17717.408 0.00066940445 
Loop time of 46.2236 on 6 procs for 1000000 steps with 97 atoms

Performance: 18691.741 ns/day, 0.001 hours/ns, 21633.959 timesteps/s
99.7% CPU use with 6 MPI tasks x no OpenMP threads

MPI task timing breakdown:
Section |  min time  |  avg time  |  max time  |%varavg| %total
---------------------------------------------------------------
Pair    | 0.9569     | 5.6279     | 10.645     | 134.2 | 12.18
Bond    | 0.064338   | 0.2206     | 0.39983    |  22.4 |  0.48
Neigh   | 2.0875     | 2.0965     | 2.1103     |   0.6 |  4.54
Comm    | 30.157     | 35.939     | 41.362     |  61.2 | 77.75
Output  | 0.0013602  | 0.0014813  | 0.0019112  |   0.5 |  0.00
Modify  | 0.27743    | 1.0215     | 1.8687     |  49.8 |  2.21
Other   |            | 1.317      |            |       |  2.85

Nlocal:        16.1667 ave          97 max           0 min
Histogram: 5 0 0 0 0 0 0 0 0 1
Nghost:        26.1667 ave          97 max           0 min
Histogram: 3 0 2 0 0 0 0 0 0 1
Neighs:        406.833 ave        2441 max           0 min
Histogram: 5 0 0 0 0 0 0 0 0 1

Total # of neighbors = 2441
Ave neighs/atom = 25.164948
Ave special neighs/atom = 1.9793814
Neighbor list builds = 26352
Dangerous builds = 0

####Replicate initial system

replicate 4 4 4
Replicating atoms ...
  orthogonal box = (0.0000000 0.0000000 0.0000000) to (1200.0000 1200.0000 1200.0000)
  1 by 2 by 3 MPI processor grid
  6208 atoms
  6144 bonds
Finding 1-2 1-3 1-4 neighbors ...
  special bond factors lj:    0        1        1       
  special bond factors coul:  0        1        1       
     2 = max # of 1-2 neighbors
     6 = max # of special neighbors
  special bonds CPU = 0.000 seconds
  replicate CPU = 0.004 seconds

run 1
Per MPI rank memory allocation (min/avg/max) = 11.62 | 11.64 | 11.68 Mbytes
Step PotEng Temp Press KinEng Lx Ly Lz Pzz S/CPU Density 
 1006000   -380.88667    309.34432   0.10858129    5723.4539         1200         1200         1200  0.074474753            0 0.00066940445 
 1006001   -344.67179    307.31279   0.10228224    5685.8668         1200         1200         1200  0.077463743     906.6805 0.00066940445 
Loop time of 0.00111278 on 6 procs for 1 steps with 6208 atoms

Performance: 776.435 ns/day, 0.031 hours/ns, 898.651 timesteps/s
87.2% CPU use with 6 MPI tasks x no OpenMP threads

MPI task timing breakdown:
Section |  min time  |  avg time  |  max time  |%varavg| %total
---------------------------------------------------------------
Pair    | 0.00046492 | 0.00062358 | 0.00093794 |   0.0 | 56.04
Bond    | 1.3828e-05 | 1.8676e-05 | 2.8133e-05 |   0.0 |  1.68
Neigh   | 0          | 0          | 0          |   0.0 |  0.00
Comm    | 2.9087e-05 | 0.00035195 | 0.00051498 |   0.0 | 31.63
Output  | 2.6941e-05 | 5.5114e-05 | 7.2002e-05 |   0.0 |  4.95
Modify  | 4.1962e-05 | 5.571e-05  | 8.2731e-05 |   0.0 |  5.01
Other   |            | 7.749e-06  |            |       |  0.70

Nlocal:        1034.67 ave        1552 max         776 min
Histogram: 4 0 0 0 0 0 0 0 0 2
Nghost:        629.333 ave         776 max         472 min
Histogram: 2 0 0 0 0 2 0 0 0 2
Neighs:        25984.0 ave       38976 max       19488 min
Histogram: 4 0 0 0 0 0 0 0 0 2

Total # of neighbors = 155904
Ave neighs/atom = 25.113402
Ave special neighs/atom = 1.9793814
Neighbor list builds = 0
Dangerous builds = 0

####Smaller box size

#change_box all x final 0 300 y final 0 300 z final 0 300 remap

####Loop to compress

variable myDensity equal density
label loop
variable a loop 1000
change_box all x scale 0.95 y scale 0.95 z scale 0.95 remap
Changing box ...
  orthogonal box = (30.000000 0.0000000 0.0000000) to (1170.0000 1200.0000 1200.0000)
  orthogonal box = (30.000000 30.000000 0.0000000) to (1170.0000 1170.0000 1200.0000)
  orthogonal box = (30.000000 30.000000 30.000000) to (1170.0000 1170.0000 1170.0000)
run 8000
Per MPI rank memory allocation (min/avg/max) = 11.63 | 11.64 | 11.68 Mbytes
Step PotEng Temp Press KinEng Lx Ly Lz Pzz S/CPU Density 
 1006001    2158.7062    307.31279    1.7589285    5685.8668         1140         1140         1140    1.7211845            0 0.0007807604 
 1014001    216.84309    320.37772 -0.038754319    5927.5927         1140         1140         1140 -0.059194491    1143.2364 0.0007807604 
Loop time of 6.99781 on 6 procs for 8000 steps with 6208 atoms

Performance: 987.737 ns/day, 0.024 hours/ns, 1143.215 timesteps/s
99.7% CPU use with 6 MPI tasks x no OpenMP threads

MPI task timing breakdown:
Section |  min time  |  avg time  |  max time  |%varavg| %total
---------------------------------------------------------------
Pair    | 2.478      | 3.5262     | 5.4115     |  68.7 | 50.39
Bond    | 0.066878   | 0.090058   | 0.13554    |  10.5 |  1.29
Neigh   | 0.48465    | 0.48612    | 0.48795    |   0.2 |  6.95
Comm    | 0.29637    | 2.3934     | 3.5508     |  93.2 | 34.20
Output  | 4.1008e-05 | 9.0599e-05 | 0.0002079  |   0.0 |  0.00
Modify  | 0.3263     | 0.43768    | 0.65749    |  23.1 |  6.25
Other   |            | 0.0643     |            |       |  0.92

Nlocal:        1034.67 ave        1566 max         768 min
Histogram: 4 0 0 0 0 0 0 0 0 2
Nghost:        659.333 ave         783 max         497 min
Histogram: 1 0 0 1 0 1 1 0 0 2
Neighs:        19942.0 ave       30636 max       13956 min
Histogram: 4 0 0 0 0 0 0 0 0 2

Total # of neighbors = 119652
Ave neighs/atom = 19.273840
Ave special neighs/atom = 1.9793814
Neighbor list builds = 293
Dangerous builds = 0

if "${myDensity} > 1.0" then "jump SELF break"

next a
jump SELF loop
variable a loop 1000
change_box all x scale 0.95 y scale 0.95 z scale 0.95 remap
Changing box ...
  orthogonal box = (58.500000 30.000000 30.000000) to (1141.5000 1170.0000 1170.0000)
  orthogonal box = (58.500000 58.500000 30.000000) to (1141.5000 1141.5000 1170.0000)
  orthogonal box = (58.500000 58.500000 58.500000) to (1141.5000 1141.5000 1141.5000)
run 8000
Per MPI rank memory allocation (min/avg/max) = 11.63 | 11.64 | 11.68 Mbytes
Step PotEng Temp Press KinEng Lx Ly Lz Pzz S/CPU Density 
 1014001    2274.2849    320.37772    1.9433751    5927.5927         1083         1083         1083    1.9180259            0 0.0009106405 
 1022001     278.1049    327.30107  0.022636694    6055.6877         1083         1083         1083  0.010737171    1218.5075 0.0009106405 
Loop time of 6.56553 on 6 procs for 8000 steps with 6208 atoms

Performance: 1052.771 ns/day, 0.023 hours/ns, 1218.485 timesteps/s
99.7% CPU use with 6 MPI tasks x no OpenMP threads

MPI task timing breakdown:
Section |  min time  |  avg time  |  max time  |%varavg| %total
---------------------------------------------------------------
Pair    | 2.17       | 3.0856     | 4.9727     |  68.0 | 47.00
Bond    | 0.062929   | 0.09013    | 0.13677    |  10.5 |  1.37
Neigh   | 0.47729    | 0.47978    | 0.48254    |   0.3 |  7.31
Comm    | 0.29522    | 2.4069     | 3.4376     |  86.7 | 36.66
Output  | 4.4823e-05 | 9.1632e-05 | 0.00020504 |   0.0 |  0.00
Modify  | 0.30652    | 0.43862    | 0.66377    |  23.0 |  6.68
Other   |            | 0.06447    |            |       |  0.98

Nlocal:        1034.67 ave        1572 max         657 min
Histogram: 1 2 1 0 0 0 0 0 0 2
Nghost:        723.500 ave         865 max         519 min
Histogram: 1 0 0 1 0 1 0 1 0 2
Neighs:        18520.2 ave       28966 max       11895 min
Histogram: 1 2 1 0 0 0 0 0 1 1

Total # of neighbors = 111121
Ave neighs/atom = 17.899646
Ave special neighs/atom = 1.9793814
Neighbor list builds = 302
Dangerous builds = 0

if "${myDensity} > 1.0" then "jump SELF break"

next a
jump SELF loop
variable a loop 1000
change_box all x scale 0.95 y scale 0.95 z scale 0.95 remap
Changing box ...
  orthogonal box = (85.575000 58.500000 58.500000) to (1114.4250 1141.5000 1141.5000)
  orthogonal box = (85.575000 85.575000 58.500000) to (1114.4250 1114.4250 1141.5000)
  orthogonal box = (85.575000 85.575000 85.575000) to (1114.4250 1114.4250 1114.4250)
run 8000
Per MPI rank memory allocation (min/avg/max) = 11.63 | 11.65 | 11.68 Mbytes
Step PotEng Temp Press KinEng Lx Ly Lz Pzz S/CPU Density 
 1022001    2507.1457    327.30107    2.3383487    6055.6877      1028.85      1028.85      1028.85    2.3530492            0 0.0010621263 
 1030001    247.99096    327.06469  0.033931211    6051.3142      1028.85      1028.85      1028.85  0.044233633    1189.4341 0.0010621263 
Loop time of 6.72604 on 6 procs for 8000 steps with 6208 atoms

Performance: 1027.648 ns/day, 0.023 hours/ns, 1189.407 timesteps/s
99.7% CPU use with 6 MPI tasks x no OpenMP threads

MPI task timing breakdown:
Section |  min time  |  avg time  |  max time  |%varavg| %total
---------------------------------------------------------------
Pair    | 1.8923     | 3.0769     | 5.089      |  67.8 | 45.75
Bond    | 0.0576     | 0.090423   | 0.14567    |  10.8 |  1.34
Neigh   | 0.47266    | 0.47596    | 0.47926    |   0.3 |  7.08
Comm    | 0.29242    | 2.5714     | 3.9119     |  83.9 | 38.23
Output  | 4.1008e-05 | 0.00010419 | 0.00023794 |   0.0 |  0.00
Modify  | 0.28198    | 0.44011    | 0.7062     |  23.6 |  6.54
Other   |            | 0.07113    |            |       |  1.06

Nlocal:        1034.67 ave        1706 max         710 min
Histogram: 2 2 0 0 0 0 1 0 0 1
Nghost:        725.833 ave         906 max         565 min
Histogram: 1 1 1 0 1 0 0 0 0 2
Neighs:        19455.7 ave       32671 max       12733 min
Histogram: 2 1 1 0 0 1 0 0 0 1

Total # of neighbors = 116734
Ave neighs/atom = 18.803802
Ave special neighs/atom = 1.9793814
Neighbor list builds = 299
Dangerous builds = 0

if "${myDensity} > 1.0" then "jump SELF break"

next a
jump SELF loop
variable a loop 1000
change_box all x scale 0.95 y scale 0.95 z scale 0.95 remap
Changing box ...
  orthogonal box = (111.29625 85.575000 85.575000) to (1088.7037 1114.4250 1114.4250)
  orthogonal box = (111.29625 111.29625 85.575000) to (1088.7037 1088.7037 1114.4250)
  orthogonal box = (111.29625 111.29625 111.29625) to (1088.7037 1088.7037 1088.7037)
run 8000
Per MPI rank memory allocation (min/avg/max) = 11.63 | 11.65 | 11.68 Mbytes
Step PotEng Temp Press KinEng Lx Ly Lz Pzz S/CPU Density 
 1030001     2505.994    327.06469    2.7475864    6051.3142     977.4075     977.4075     977.4075    2.7453277            0 0.0012388118 
 1038001     336.3507    331.27462  0.002386896     6129.206     977.4075     977.4075     977.4075  0.061331457    1187.3816 0.0012388118 
Loop time of 6.73764 on 6 procs for 8000 steps with 6208 atoms

Performance: 1025.879 ns/day, 0.023 hours/ns, 1187.360 timesteps/s
99.5% CPU use with 6 MPI tasks x no OpenMP threads

MPI task timing breakdown:
Section |  min time  |  avg time  |  max time  |%varavg| %total
---------------------------------------------------------------
Pair    | 2.0271     | 3.0165     | 5.0338     |  61.0 | 44.77
Bond    | 0.062894   | 0.090473   | 0.1442     |  10.1 |  1.34
Neigh   | 0.49612    | 0.50193    | 0.51009    |   0.6 |  7.45
Comm    | 0.33199    | 2.6092     | 3.7376     |  74.6 | 38.73
Output  | 4.4107e-05 | 9.6401e-05 | 0.0002079  |   0.0 |  0.00
Modify  | 0.30763    | 0.44178    | 0.70107    |  22.2 |  6.56
Other   |            | 0.0776     |            |       |  1.15

Nlocal:        1034.67 ave        1639 max         735 min
Histogram: 2 1 1 0 0 0 1 0 0 1
Nghost:        808.167 ave        1008 max         613 min
Histogram: 2 0 0 1 0 0 1 0 1 1
Neighs:        18620.5 ave       32067 max       12751 min
Histogram: 3 0 1 0 1 0 0 0 0 1

Total # of neighbors = 111723
Ave neighs/atom = 17.996617
Ave special neighs/atom = 1.9793814
Neighbor list builds = 310
Dangerous builds = 0

if "${myDensity} > 1.0" then "jump SELF break"

next a
jump SELF loop
variable a loop 1000
change_box all x scale 0.95 y scale 0.95 z scale 0.95 remap
Changing box ...
  orthogonal box = (135.73144 111.29625 111.29625) to (1064.2686 1088.7037 1088.7037)
  orthogonal box = (135.73144 135.73144 111.29625) to (1064.2686 1064.2686 1088.7037)
  orthogonal box = (135.73144 135.73144 135.73144) to (1064.2686 1064.2686 1064.2686)
run 8000
Per MPI rank memory allocation (min/avg/max) = 11.63 | 11.65 | 11.68 Mbytes
Step PotEng Temp Press KinEng Lx Ly Lz Pzz S/CPU Density 
 1038001    2570.9816    331.27462    3.2777799     6129.206    928.53712    928.53712    928.53712    3.3444422            0 0.0014448891 
 1046001    266.63781    325.04624 -0.014386433    6013.9692    928.53712    928.53712    928.53712 0.00080850945    1224.9355 0.0014448891 
Loop time of 6.53108 on 6 procs for 8000 steps with 6208 atoms

Performance: 1058.325 ns/day, 0.023 hours/ns, 1224.913 timesteps/s
99.5% CPU use with 6 MPI tasks x no OpenMP threads

MPI task timing breakdown:
Section |  min time  |  avg time  |  max time  |%varavg| %total
---------------------------------------------------------------
Pair    | 2.0108     | 2.9332     | 4.8721     |  59.7 | 44.91
Bond    | 0.0617     | 0.090454   | 0.14319    |   9.7 |  1.38
Neigh   | 0.44615    | 0.45004    | 0.4544     |   0.4 |  6.89
Comm    | 0.35236    | 2.5464     | 3.6076     |  72.9 | 38.99
Output  | 4.1008e-05 | 9.5487e-05 | 0.00020909 |   0.0 |  0.00
Modify  | 0.30082    | 0.44215    | 0.69505    |  21.2 |  6.77
Other   |            | 0.06879    |            |       |  1.05

Nlocal:        1034.67 ave        1726 max         663 min
Histogram: 2 1 0 1 0 1 0 0 0 1
Nghost:        803.333 ave        1019 max         515 min
Histogram: 1 1 0 0 0 0 1 1 1 1
Neighs:        18179.7 ave       31899 max       12110 min
Histogram: 3 0 0 1 1 0 0 0 0 1

Total # of neighbors = 109078
Ave neighs/atom = 17.570554
Ave special neighs/atom = 1.9793814
Neighbor list builds = 302
Dangerous builds = 0

if "${myDensity} > 1.0" then "jump SELF break"

next a
jump SELF loop
variable a loop 1000
change_box all x scale 0.95 y scale 0.95 z scale 0.95 remap
Changing box ...
  orthogonal box = (158.94487 135.73144 135.73144) to (1041.0551 1064.2686 1064.2686)
  orthogonal box = (158.94487 158.94487 135.73144) to (1041.0551 1041.0551 1064.2686)
  orthogonal box = (158.94487 158.94487 158.94487) to (1041.0551 1041.0551 1041.0551)
run 8000
Per MPI rank memory allocation (min/avg/max) = 11.63 | 11.65 | 11.68 Mbytes
Step PotEng Temp Press KinEng Lx Ly Lz Pzz S/CPU Density 
 1046001    2405.2874    325.04624    3.6446304    6013.9692    882.11027    882.11027    882.11027    3.6881933            0 0.0016852475 
 1054001     385.7704    329.79974 -0.0018669573    6101.9178    882.11027    882.11027    882.11027 -0.012592828    1167.7398 0.0016852475 
Loop time of 6.85096 on 6 procs for 8000 steps with 6208 atoms

Performance: 1008.910 ns/day, 0.024 hours/ns, 1167.720 timesteps/s
99.7% CPU use with 6 MPI tasks x no OpenMP threads

MPI task timing breakdown:
Section |  min time  |  avg time  |  max time  |%varavg| %total
---------------------------------------------------------------
Pair    | 1.9629     | 3.0088     | 5.1829     |  61.4 | 43.92
Bond    | 0.056304   | 0.090152   | 0.14957    |  10.1 |  1.32
Neigh   | 0.4583     | 0.46146    | 0.46538    |   0.3 |  6.74
Comm    | 0.31184    | 2.7747     | 3.9837     |  72.7 | 40.50
Output  | 4.1008e-05 | 9.2864e-05 | 0.00020409 |   0.0 |  0.00
Modify  | 0.27573    | 0.44097    | 0.72773    |  22.1 |  6.44
Other   |            | 0.07474    |            |       |  1.09

Nlocal:        1034.67 ave        1696 max         611 min
Histogram: 1 1 1 1 0 1 0 0 0 1
Nghost:        842.167 ave        1126 max         573 min
Histogram: 1 0 1 1 0 1 0 1 0 1
Neighs:        18480.2 ave       31382 max       11508 min
Histogram: 1 1 2 0 1 0 0 0 0 1

Total # of neighbors = 110881
Ave neighs/atom = 17.860986
Ave special neighs/atom = 1.9793814
Neighbor list builds = 306
Dangerous builds = 0

if "${myDensity} > 1.0" then "jump SELF break"

next a
jump SELF loop
variable a loop 1000
change_box all x scale 0.95 y scale 0.95 z scale 0.95 remap
Changing box ...
  orthogonal box = (180.99762 158.94487 158.94487) to (1019.0024 1041.0551 1041.0551)
  orthogonal box = (180.99762 180.99762 158.94487) to (1019.0024 1019.0024 1041.0551)
  orthogonal box = (180.99762 180.99762 180.99762) to (1019.0024 1019.0024 1019.0024)
run 8000
Per MPI rank memory allocation (min/avg/max) = 11.63 | 11.65 | 11.68 Mbytes
Step PotEng Temp Press KinEng Lx Ly Lz Pzz S/CPU Density 
 1054001    2555.6437    329.79974     4.297415    6101.9178    838.00476    838.00476    838.00476    4.3235147            0 0.0019655898 
 1062001    403.47772    323.75791  0.045763771    5990.1326    838.00476    838.00476    838.00476   0.12305532    1318.3533 0.0019655898 
Loop time of 6.06828 on 6 procs for 8000 steps with 6208 atoms

Performance: 1139.038 ns/day, 0.021 hours/ns, 1318.331 timesteps/s
99.7% CPU use with 6 MPI tasks x no OpenMP threads

MPI task timing breakdown:
Section |  min time  |  avg time  |  max time  |%varavg| %total
---------------------------------------------------------------
Pair    | 1.8453     | 2.8906     | 4.5494     |  51.8 | 47.64
Bond    | 0.057329   | 0.090351   | 0.13476    |   8.5 |  1.49
Neigh   | 0.41206    | 0.41422    | 0.41733    |   0.3 |  6.83
Comm    | 0.29859    | 2.1734     | 3.3765     |  68.1 | 35.82
Output  | 4.1962e-05 | 7.5698e-05 | 0.0001781  |   0.0 |  0.00
Modify  | 0.28072    | 0.44108    | 0.65591    |  18.7 |  7.27
Other   |            | 0.05857    |            |       |  0.97

Nlocal:        1034.67 ave        1494 max         660 min
Histogram: 1 0 2 0 1 0 0 1 0 1
Nghost:        795.667 ave         962 max         677 min
Histogram: 1 2 1 0 0 0 0 0 0 2
Neighs:        17015.2 ave       26402 max       10378 min
Histogram: 1 0 1 2 0 0 1 0 0 1

Total # of neighbors = 102091
Ave neighs/atom = 16.445071
Ave special neighs/atom = 1.9793814
Neighbor list builds = 310
Dangerous builds = 0

if "${myDensity} > 1.0" then "jump SELF break"

next a
jump SELF loop
variable a loop 1000
change_box all x scale 0.95 y scale 0.95 z scale 0.95 remap
Changing box ...
  orthogonal box = (201.94774 180.99762 180.99762) to (998.05226 1019.0024 1019.0024)
  orthogonal box = (201.94774 201.94774 180.99762) to (998.05226 998.05226 1019.0024)
  orthogonal box = (201.94774 201.94774 201.94774) to (998.05226 998.05226 998.05226)
run 8000
Per MPI rank memory allocation (min/avg/max) = 11.63 | 11.65 | 11.68 Mbytes
Step PotEng Temp Press KinEng Lx Ly Lz Pzz S/CPU Density 
 1062001    2646.5597    323.75791    5.0692603    5990.1326    796.10452    796.10452    796.10452    5.0890397            0 0.0022925672 
 1070001     447.5703     328.8924 -0.049484839    6085.1304    796.10452    796.10452    796.10452  0.037567034    1468.7011 0.0022925672 
Loop time of 5.44711 on 6 procs for 8000 steps with 6208 atoms

Performance: 1268.930 ns/day, 0.019 hours/ns, 1468.669 timesteps/s
99.7% CPU use with 6 MPI tasks x no OpenMP threads

MPI task timing breakdown:
Section |  min time  |  avg time  |  max time  |%varavg| %total
---------------------------------------------------------------
Pair    | 1.8709     | 2.8021     | 4.0536     |  43.2 | 51.44
Bond    | 0.057683   | 0.090548   | 0.12451    |   7.0 |  1.66
Neigh   | 0.37585    | 0.37704    | 0.37904    |   0.2 |  6.92
Comm    | 0.26981    | 1.6894     | 2.7759     |  63.5 | 31.01
Output  | 3.6955e-05 | 7.4546e-05 | 0.00018501 |   0.0 |  0.00
Modify  | 0.28361    | 0.44177    | 0.6072     |  15.4 |  8.11
Other   |            | 0.04622    |            |       |  0.85

Nlocal:        1034.67 ave        1457 max         665 min
Histogram: 1 0 1 0 1 2 0 0 0 1
Nghost:        821.667 ave         920 max         656 min
Histogram: 1 0 0 0 1 0 1 1 1 1
Neighs:        17548.0 ave       24954 max       11099 min
Histogram: 1 1 0 0 1 1 1 0 0 1

Total # of neighbors = 105288
Ave neighs/atom = 16.960052
Ave special neighs/atom = 1.9793814
Neighbor list builds = 311
Dangerous builds = 0

if "${myDensity} > 1.0" then "jump SELF break"

next a
jump SELF loop
variable a loop 1000
change_box all x scale 0.95 y scale 0.95 z scale 0.95 remap
Changing box ...
  orthogonal box = (221.85035 201.94774 201.94774) to (978.14965 998.05226 998.05226)
  orthogonal box = (221.85035 221.85035 201.94774) to (978.14965 978.14965 998.05226)
  orthogonal box = (221.85035 221.85035 221.85035) to (978.14965 978.14965 978.14965)
run 8000
Per MPI rank memory allocation (min/avg/max) = 11.63 | 11.65 | 11.68 Mbytes
Step PotEng Temp Press KinEng Lx Ly Lz Pzz S/CPU Density 
 1070001    2527.3873     328.8924    5.6998554    6085.1304    756.29929    756.29929    756.29929    5.7169971            0 0.0026739375 
 1078001    349.23506    331.53989  0.059277897    6134.1139    756.29929    756.29929    756.29929 -0.066853743    1377.5575 0.0026739375 
Loop time of 5.80748 on 6 procs for 8000 steps with 6208 atoms

Performance: 1190.190 ns/day, 0.020 hours/ns, 1377.534 timesteps/s
99.7% CPU use with 6 MPI tasks x no OpenMP threads

MPI task timing breakdown:
Section |  min time  |  avg time  |  max time  |%varavg| %total
---------------------------------------------------------------
Pair    | 1.7117     | 2.855      | 4.3491     |  48.7 | 49.16
Bond    | 0.057157   | 0.090733   | 0.13086    |   7.6 |  1.56
Neigh   | 0.39362    | 0.39525    | 0.397      |   0.2 |  6.81
Comm    | 0.27979    | 1.9713     | 3.2741     |  66.6 | 33.94
Output  | 3.6001e-05 | 7.836e-05  | 0.000175   |   0.0 |  0.00
Modify  | 0.28008    | 0.44253    | 0.63719    |  16.7 |  7.62
Other   |            | 0.05261    |            |       |  0.91

Nlocal:        1034.67 ave        1577 max         621 min
Histogram: 1 0 1 0 3 0 0 0 0 1
Nghost:        853.167 ave        1013 max         675 min
Histogram: 1 0 1 0 1 0 1 0 1 1
Neighs:        17348.0 ave       28822 max        8389 min
Histogram: 1 1 0 0 2 1 0 0 0 1

Total # of neighbors = 104088
Ave neighs/atom = 16.766753
Ave special neighs/atom = 1.9793814
Neighbor list builds = 317
Dangerous builds = 0

if "${myDensity} > 1.0" then "jump SELF break"

next a
jump SELF loop
variable a loop 1000
change_box all x scale 0.95 y scale 0.95 z scale 0.95 remap
Changing box ...
  orthogonal box = (240.75784 221.85035 221.85035) to (959.24216 978.14965 978.14965)
  orthogonal box = (240.75784 240.75784 221.85035) to (959.24216 959.24216 978.14965)
  orthogonal box = (240.75784 240.75784 240.75784) to (959.24216 959.24216 959.24216)
run 8000
Per MPI rank memory allocation (min/avg/max) = 11.63 | 11.65 | 11.68 Mbytes
Step PotEng Temp Press KinEng Lx Ly Lz Pzz S/CPU Density 
 1078001    2547.8228    331.53989    6.8147404    6134.1139    718.48433    718.48433    718.48433    6.6487757            0 0.0031187491 
 1086001    362.53349    323.41775 -0.021088561     5983.839    718.48433    718.48433    718.48433  0.048203906    1357.0555 0.0031187491 
Loop time of 5.89523 on 6 procs for 8000 steps with 6208 atoms

Performance: 1172.473 ns/day, 0.020 hours/ns, 1357.029 timesteps/s
99.7% CPU use with 6 MPI tasks x no OpenMP threads

MPI task timing breakdown:
Section |  min time  |  avg time  |  max time  |%varavg| %total
---------------------------------------------------------------
Pair    | 1.6528     | 2.8167     | 4.4174     |  52.3 | 47.78
Bond    | 0.057758   | 0.090663   | 0.13552    |   8.0 |  1.54
Neigh   | 0.37699    | 0.37845    | 0.38093    |   0.2 |  6.42
Comm    | 0.28961    | 2.1094     | 3.4294     |  68.5 | 35.78
Output  | 3.8862e-05 | 7.8877e-05 | 0.00018287 |   0.0 |  0.00
Modify  | 0.2832     | 0.44221    | 0.65843    |  17.4 |  7.50
Other   |            | 0.0577     |            |       |  0.98

Nlocal:        1034.67 ave        1509 max         706 min
Histogram: 1 1 0 1 2 0 0 0 0 1
Nghost:        899.833 ave        1031 max         738 min
Histogram: 1 0 0 2 0 0 0 1 1 1
Neighs:        16908.0 ave       26587 max       10003 min
Histogram: 1 1 0 1 2 0 0 0 0 1

Total # of neighbors = 101448
Ave neighs/atom = 16.341495
Ave special neighs/atom = 1.9793814
Neighbor list builds = 302
Dangerous builds = 0

if "${myDensity} > 1.0" then "jump SELF break"

next a
jump SELF loop
variable a loop 1000
change_box all x scale 0.95 y scale 0.95 z scale 0.95 remap
Changing box ...
  orthogonal box = (258.71994 240.75784 240.75784) to (941.28006 959.24216 959.24216)
  orthogonal box = (258.71994 258.71994 240.75784) to (941.28006 941.28006 959.24216)
  orthogonal box = (258.71994 258.71994 258.71994) to (941.28006 941.28006 941.28006)
run 8000
Per MPI rank memory allocation (min/avg/max) = 11.63 | 11.65 | 11.68 Mbytes
Step PotEng Temp Press KinEng Lx Ly Lz Pzz S/CPU Density 
 1086001    2492.6093    323.41775    7.8129366     5983.839    682.56011    682.56011    682.56011    7.8543112            0 0.0036375554 
 1094001    345.99197    327.25625  0.065470848    6054.8584    682.56011    682.56011    682.56011   0.07089909    1460.3889 0.0036375554 
Loop time of 5.47811 on 6 procs for 8000 steps with 6208 atoms

Performance: 1261.749 ns/day, 0.019 hours/ns, 1460.357 timesteps/s
99.6% CPU use with 6 MPI tasks x no OpenMP threads

MPI task timing breakdown:
Section |  min time  |  avg time  |  max time  |%varavg| %total
---------------------------------------------------------------
Pair    | 2.0123     | 2.8279     | 4.0532     |  39.8 | 51.62
Bond    | 0.066829   | 0.090647   | 0.12725    |   6.5 |  1.65
Neigh   | 0.34249    | 0.34405    | 0.34675    |   0.2 |  6.28
Comm    | 0.31697    | 1.7227     | 2.65       |  58.2 | 31.45
Output  | 3.7909e-05 | 7.6016e-05 | 0.00017881 |   0.0 |  0.00
Modify  | 0.32729    | 0.4419     | 0.61976    |  14.2 |  8.07
Other   |            | 0.05081    |            |       |  0.93

Nlocal:        1034.67 ave        1446 max         838 min
Histogram: 2 0 1 1 1 0 0 0 0 1
Nghost:        908.000 ave        1004 max         801 min
Histogram: 1 0 0 2 0 0 1 1 0 1
Neighs:        18283.3 ave       24906 max       13885 min
Histogram: 1 1 0 1 1 1 0 0 0 1

Total # of neighbors = 109700
Ave neighs/atom = 17.670747
Ave special neighs/atom = 1.9793814
Neighbor list builds = 300
Dangerous builds = 0

if "${myDensity} > 1.0" then "jump SELF break"

next a
jump SELF loop
variable a loop 1000
change_box all x scale 0.95 y scale 0.95 z scale 0.95 remap
Changing box ...
  orthogonal box = (275.78395 258.71994 258.71994) to (924.21605 941.28006 941.28006)
  orthogonal box = (275.78395 275.78395 258.71994) to (924.21605 924.21605 941.28006)
  orthogonal box = (275.78395 275.78395 275.78395) to (924.21605 924.21605 924.21605)
run 8000
Per MPI rank memory allocation (min/avg/max) = 11.63 | 11.65 | 11.68 Mbytes
Step PotEng Temp Press KinEng Lx Ly Lz Pzz S/CPU Density 
 1094001    2573.7518    327.25625    9.3715693    6054.8584    648.43211    648.43211    648.43211    9.3545422            0 0.0042426656 
 1102001    324.19532    329.94473 -0.012550612    6104.6004    648.43211    648.43211    648.43211  0.042767453    1476.4144 0.0042426656 
Loop time of 5.41864 on 6 procs for 8000 steps with 6208 atoms

Performance: 1275.596 ns/day, 0.019 hours/ns, 1476.384 timesteps/s
99.7% CPU use with 6 MPI tasks x no OpenMP threads

MPI task timing breakdown:
Section |  min time  |  avg time  |  max time  |%varavg| %total
---------------------------------------------------------------
Pair    | 2.2765     | 2.9465     | 4.0508     |  32.1 | 54.38
Bond    | 0.072144   | 0.090767   | 0.1227     |   5.3 |  1.68
Neigh   | 0.33966    | 0.3412     | 0.34316    |   0.2 |  6.30
Comm    | 0.28784    | 1.5483     | 2.3041     |  50.6 | 28.57
Output  | 0.0024829  | 0.0027178  | 0.003056   |   0.4 |  0.05
Modify  | 0.35279    | 0.44323    | 0.59733    |  11.7 |  8.18
Other   |            | 0.046      |            |       |  0.85

Nlocal:        1034.67 ave        1370 max         829 min
Histogram: 1 1 0 3 0 0 0 0 0 1
Nghost:        896.000 ave         967 max         725 min
Histogram: 1 0 0 0 0 0 1 1 1 2
Neighs:        18454.0 ave       25750 max       13168 min
Histogram: 1 0 0 3 1 0 0 0 0 1

Total # of neighbors = 110724
Ave neighs/atom = 17.835696
Ave special neighs/atom = 1.9793814
Neighbor list builds = 302
Dangerous builds = 0

if "${myDensity} > 1.0" then "jump SELF break"

next a
jump SELF loop
variable a loop 1000
change_box all x scale 0.95 y scale 0.95 z scale 0.95 remap
Changing box ...
  orthogonal box = (291.99475 275.78395 275.78395) to (908.00525 924.21605 924.21605)
  orthogonal box = (291.99475 291.99475 275.78395) to (908.00525 908.00525 924.21605)
  orthogonal box = (291.99475 291.99475 291.99475) to (908.00525 908.00525 908.00525)
run 8000
Per MPI rank memory allocation (min/avg/max) = 11.77 | 11.81 | 11.86 Mbytes
Step PotEng Temp Press KinEng Lx Ly Lz Pzz S/CPU Density 
 1102001    2447.9669    329.94473    10.635574    6104.6004     616.0105     616.0105     616.0105    10.598583            0 0.0049484363 
 1110001    350.11619    328.26647   0.16229721    6073.5494     616.0105     616.0105     616.0105   0.12925377    1490.8773 0.0049484363 
Loop time of 5.36608 on 6 procs for 8000 steps with 6208 atoms

Performance: 1288.091 ns/day, 0.019 hours/ns, 1490.846 timesteps/s
99.7% CPU use with 6 MPI tasks x no OpenMP threads

MPI task timing breakdown:
Section |  min time  |  avg time  |  max time  |%varavg| %total
---------------------------------------------------------------
Pair    | 2.2046     | 2.9528     | 4.0432     |  33.4 | 55.03
Bond    | 0.072495   | 0.090574   | 0.11822    |   4.8 |  1.69
Neigh   | 0.33281    | 0.33402    | 0.33579    |   0.2 |  6.22
Comm    | 0.28161    | 1.5056     | 2.338      |  52.4 | 28.06
Output  | 3.6955e-05 | 7.0016e-05 | 0.00016499 |   0.0 |  0.00
Modify  | 0.35385    | 0.44219    | 0.57409    |  10.4 |  8.24
Other   |            | 0.04074    |            |       |  0.76

Nlocal:        1034.67 ave        1358 max         866 min
Histogram: 2 0 0 3 0 0 0 0 0 1
Nghost:        920.667 ave        1079 max         748 min
Histogram: 1 0 0 1 2 0 0 0 1 1
Neighs:        18494.8 ave       24934 max       14795 min
Histogram: 2 0 0 2 1 0 0 0 0 1

Total # of neighbors = 110969
Ave neighs/atom = 17.875161
Ave special neighs/atom = 1.9793814
Neighbor list builds = 302
Dangerous builds = 0

if "${myDensity} > 1.0" then "jump SELF break"

next a
jump SELF loop
variable a loop 1000
change_box all x scale 0.95 y scale 0.95 z scale 0.95 remap
Changing box ...
  orthogonal box = (307.39501 291.99475 291.99475) to (892.60499 908.00525 908.00525)
  orthogonal box = (307.39501 307.39501 291.99475) to (892.60499 892.60499 908.00525)
  orthogonal box = (307.39501 307.39501 307.39501) to (892.60499 892.60499 892.60499)
run 8000
Per MPI rank memory allocation (min/avg/max) = 11.77 | 11.81 | 11.86 Mbytes
Step PotEng Temp Press KinEng Lx Ly Lz Pzz S/CPU Density 
 1110001    2601.0473    328.26647    12.767916    6073.5494    585.20997    585.20997    585.20997    12.891901            0 0.0057716126 
 1118001    243.19914    331.82659  0.053665644    6139.4184    585.20997    585.20997    585.20997   0.16621442    1560.5137 0.0057716126 
Loop time of 5.12664 on 6 procs for 8000 steps with 6208 atoms

Performance: 1348.252 ns/day, 0.018 hours/ns, 1560.476 timesteps/s
99.7% CPU use with 6 MPI tasks x no OpenMP threads

MPI task timing breakdown:
Section |  min time  |  avg time  |  max time  |%varavg| %total
---------------------------------------------------------------
Pair    | 2.4202     | 2.9048     | 3.7952     |  27.1 | 56.66
Bond    | 0.074754   | 0.090702   | 0.11759    |   4.5 |  1.77
Neigh   | 0.33903    | 0.34112    | 0.34331    |   0.3 |  6.65
Comm    | 0.28783    | 1.3088     | 1.866      |  45.9 | 25.53
Output  | 3.4809e-05 | 6.4254e-05 | 0.00016999 |   0.0 |  0.00
Modify  | 0.36591    | 0.44161    | 0.57015    |   9.7 |  8.61
Other   |            | 0.03954    |            |       |  0.77

Nlocal:        1034.67 ave        1290 max         862 min
Histogram: 1 0 1 2 1 0 0 0 0 1
Nghost:        989.167 ave        1266 max         875 min
Histogram: 3 0 1 0 1 0 0 0 0 1
Neighs:        17513.7 ave       23060 max       14208 min
Histogram: 2 0 0 2 1 0 0 0 0 1

Total # of neighbors = 105082
Ave neighs/atom = 16.926869
Ave special neighs/atom = 1.9793814
Neighbor list builds = 313
Dangerous builds = 0

if "${myDensity} > 1.0" then "jump SELF break"

next a
jump SELF loop
variable a loop 1000
change_box all x scale 0.95 y scale 0.95 z scale 0.95 remap
Changing box ...
  orthogonal box = (322.02526 307.39501 307.39501) to (877.97474 892.60499 892.60499)
  orthogonal box = (322.02526 322.02526 307.39501) to (877.97474 877.97474 892.60499)
  orthogonal box = (322.02526 322.02526 322.02526) to (877.97474 877.97474 877.97474)
run 8000
Per MPI rank memory allocation (min/avg/max) = 11.78 | 11.81 | 11.86 Mbytes
Step PotEng Temp Press KinEng Lx Ly Lz Pzz S/CPU Density 
 1118001    2405.5803    331.82659    14.608765    6139.4184    555.94948    555.94948    555.94948     14.71625            0 0.0067317249 
 1126001    308.81346    335.32722   0.22948128    6204.1866    555.94948    555.94948    555.94948   0.18506374     1549.898 0.0067317249 
Loop time of 5.16176 on 6 procs for 8000 steps with 6208 atoms

Performance: 1339.079 ns/day, 0.018 hours/ns, 1549.860 timesteps/s
99.7% CPU use with 6 MPI tasks x no OpenMP threads

MPI task timing breakdown:
Section |  min time  |  avg time  |  max time  |%varavg| %total
---------------------------------------------------------------
Pair    | 2.3021     | 2.8602     | 3.8557     |  28.9 | 55.41
Bond    | 0.075941   | 0.090838   | 0.11442    |   3.9 |  1.76
Neigh   | 0.32579    | 0.32829    | 0.33054    |   0.3 |  6.36
Comm    | 0.29208    | 1.4038     | 2.03       |  46.0 | 27.20
Output  | 3.5048e-05 | 6.7353e-05 | 0.00017095 |   0.0 |  0.00
Modify  | 0.37145    | 0.44264    | 0.55759    |   8.6 |  8.58
Other   |            | 0.03598    |            |       |  0.70

Nlocal:        1034.67 ave        1309 max         891 min
Histogram: 2 0 1 1 1 0 0 0 0 1
Nghost:        1088.67 ave        1274 max         910 min
Histogram: 2 0 0 1 0 0 1 1 0 1
Neighs:        17691.2 ave       25350 max       13660 min
Histogram: 2 0 0 3 0 0 0 0 0 1

Total # of neighbors = 106147
Ave neighs/atom = 17.098421
Ave special neighs/atom = 1.9793814
Neighbor list builds = 303
Dangerous builds = 0

if "${myDensity} > 1.0" then "jump SELF break"

next a
jump SELF loop
variable a loop 1000
change_box all x scale 0.95 y scale 0.95 z scale 0.95 remap
Changing box ...
  orthogonal box = (335.92400 322.02526 322.02526) to (864.07600 877.97474 877.97474)
  orthogonal box = (335.92400 335.92400 322.02526) to (864.07600 864.07600 877.97474)
  orthogonal box = (335.92400 335.92400 335.92400) to (864.07600 864.07600 864.07600)
run 8000
Per MPI rank memory allocation (min/avg/max) = 11.78 | 11.81 | 11.86 Mbytes
Step PotEng Temp Press KinEng Lx Ly Lz Pzz S/CPU Density 
 1126001    2538.5003    335.32722    17.301807    6204.1866      528.152      528.152      528.152    17.065792            0 0.0078515525 
 1134001    522.30982     331.2257   0.26938655    6128.3008      528.152      528.152      528.152    0.1024256     1616.256 0.0078515525 
Loop time of 4.94981 on 6 procs for 8000 steps with 6208 atoms

Performance: 1396.418 ns/day, 0.017 hours/ns, 1616.225 timesteps/s
99.7% CPU use with 6 MPI tasks x no OpenMP threads

MPI task timing breakdown:
Section |  min time  |  avg time  |  max time  |%varavg| %total
---------------------------------------------------------------
Pair    | 2.1916     | 2.8499     | 3.5617     |  30.7 | 57.58
Bond    | 0.074591   | 0.091128   | 0.11037    |   4.5 |  1.84
Neigh   | 0.32146    | 0.32342    | 0.3256     |   0.3 |  6.53
Comm    | 0.40055    | 1.2079     | 1.9375     |  53.0 | 24.40
Output  | 3.6001e-05 | 6.175e-05  | 0.00014591 |   0.0 |  0.00
Modify  | 0.3657     | 0.44363    | 0.53738    |   9.6 |  8.96
Other   |            | 0.03375    |            |       |  0.68

Nlocal:        1034.67 ave        1183 max         802 min
Histogram: 1 1 0 0 0 0 1 0 0 3
Nghost:        1119.33 ave        1259 max         843 min
Histogram: 1 0 0 0 1 0 0 1 1 2
Neighs:        17340.3 ave       20844 max       12844 min
Histogram: 1 1 0 0 1 0 0 0 1 2

Total # of neighbors = 104042
Ave neighs/atom = 16.759343
Ave special neighs/atom = 1.9793814
Neighbor list builds = 315
Dangerous builds = 0

if "${myDensity} > 1.0" then "jump SELF break"

next a
jump SELF loop
variable a loop 1000
change_box all x scale 0.95 y scale 0.95 z scale 0.95 remap
Changing box ...
  orthogonal box = (349.12780 335.92400 335.92400) to (850.87220 864.07600 864.07600)
  orthogonal box = (349.12780 349.12780 335.92400) to (850.87220 850.87220 864.07600)
  orthogonal box = (349.12780 349.12780 349.12780) to (850.87220 850.87220 850.87220)
run 8000
Per MPI rank memory allocation (min/avg/max) = 11.78 | 11.81 | 11.86 Mbytes
Step PotEng Temp Press KinEng Lx Ly Lz Pzz S/CPU Density 
 1134001    2761.9319     331.2257    20.190591    6128.3008     501.7444     501.7444     501.7444    20.116934            0 0.0091576644 
 1142001     338.6868      322.821  0.084279351     5972.798     501.7444     501.7444     501.7444   0.18269011    1678.7777 0.0091576644 
Loop time of 4.76541 on 6 procs for 8000 steps with 6208 atoms

Performance: 1450.454 ns/day, 0.017 hours/ns, 1678.766 timesteps/s
99.7% CPU use with 6 MPI tasks x no OpenMP threads

MPI task timing breakdown:
Section |  min time  |  avg time  |  max time  |%varavg| %total
---------------------------------------------------------------
Pair    | 1.9492     | 2.8194     | 3.5223     |  32.6 | 59.16
Bond    | 0.066025   | 0.091265   | 0.10766    |   5.2 |  1.92
Neigh   | 0.30286    | 0.30386    | 0.30552    |   0.2 |  6.38
Comm    | 0.29112    | 1.0714     | 2.0622     |  60.1 | 22.48
Output  | 3.9816e-05 | 5.9923e-05 | 9.1076e-05 |   0.0 |  0.00
Modify  | 0.32501    | 0.44405    | 0.52199    |  11.2 |  9.32
Other   |            | 0.03535    |            |       |  0.74

Nlocal:        1034.67 ave        1270 max         704 min
Histogram: 1 0 1 0 0 0 1 1 1 1
Nghost:        1151.33 ave        1452 max         783 min
Histogram: 1 0 0 0 1 2 0 0 1 1
Neighs:        16689.2 ave       21687 max       10480 min
Histogram: 1 0 1 0 0 0 2 1 0 1

Total # of neighbors = 100135
Ave neighs/atom = 16.129994
Ave special neighs/atom = 1.9793814
Neighbor list builds = 309
Dangerous builds = 0

if "${myDensity} > 1.0" then "jump SELF break"

next a
jump SELF loop
variable a loop 1000
change_box all x scale 0.95 y scale 0.95 z scale 0.95 remap
Changing box ...
  orthogonal box = (361.67141 349.12780 349.12780) to (838.32859 850.87220 850.87220)
  orthogonal box = (361.67141 361.67141 349.12780) to (838.32859 838.32859 850.87220)
  orthogonal box = (361.67141 361.67141 361.67141) to (838.32859 838.32859 838.32859)
run 8000
Per MPI rank memory allocation (min/avg/max) = 11.78 | 11.81 | 11.86 Mbytes
Step PotEng Temp Press KinEng Lx Ly Lz Pzz S/CPU Density 
 1142001    2510.5777      322.821    23.110453     5972.798    476.65718    476.65718    476.65718    23.219914            0  0.010681049 
 1150001    372.41223    327.91918  0.021506501     6067.124    476.65718    476.65718    476.65718 -0.0044851031    1654.0627  0.010681049 
Loop time of 4.83669 on 6 procs for 8000 steps with 6208 atoms

Performance: 1429.075 ns/day, 0.017 hours/ns, 1654.022 timesteps/s
99.7% CPU use with 6 MPI tasks x no OpenMP threads

MPI task timing breakdown:
Section |  min time  |  avg time  |  max time  |%varavg| %total
---------------------------------------------------------------
Pair    | 1.9076     | 2.8395     | 3.5538     |  34.8 | 58.71
Bond    | 0.064867   | 0.091083   | 0.11236    |   5.5 |  1.88
Neigh   | 0.30304    | 0.30481    | 0.30691    |   0.3 |  6.30
Comm    | 0.30379    | 1.1203     | 2.1787     |  62.6 | 23.16
Output  | 4.1008e-05 | 7.1883e-05 | 0.00016785 |   0.0 |  0.00
Modify  | 0.31763    | 0.44306    | 0.54423    |  11.8 |  9.16
Other   |            | 0.03786    |            |       |  0.78

Nlocal:        1034.67 ave        1245 max         758 min
Histogram: 1 0 1 0 0 1 0 1 1 1
Nghost:        1312.17 ave        1765 max         951 min
Histogram: 1 0 1 0 3 0 0 0 0 1
Neighs:        17754.3 ave       22968 max       12401 min
Histogram: 1 1 0 0 1 0 1 1 0 1

Total # of neighbors = 106526
Ave neighs/atom = 17.159472
Ave special neighs/atom = 1.9793814
Neighbor list builds = 304
Dangerous builds = 0

if "${myDensity} > 1.0" then "jump SELF break"

next a
jump SELF loop
variable a loop 1000
change_box all x scale 0.95 y scale 0.95 z scale 0.95 remap
Changing box ...
  orthogonal box = (373.58784 361.67141 361.67141) to (826.41216 838.32859 838.32859)
  orthogonal box = (373.58784 373.58784 361.67141) to (826.41216 826.41216 838.32859)
  orthogonal box = (373.58784 373.58784 373.58784) to (826.41216 826.41216 826.41216)
run 8000
Per MPI rank memory allocation (min/avg/max) = 11.78 | 11.81 | 11.86 Mbytes
Step PotEng Temp Press KinEng Lx Ly Lz Pzz S/CPU Density 
 1150001    2513.2223    327.91918    26.834069     6067.124    452.82432    452.82432    452.82432    26.523484            0   0.01245785 
 1158001    386.79238    333.99918  0.013159028    6179.6154    452.82432    452.82432    452.82432    0.1382745    1559.9843   0.01245785 
Loop time of 5.12837 on 6 procs for 8000 steps with 6208 atoms

Performance: 1347.796 ns/day, 0.018 hours/ns, 1559.950 timesteps/s
99.7% CPU use with 6 MPI tasks x no OpenMP threads

MPI task timing breakdown:
Section |  min time  |  avg time  |  max time  |%varavg| %total
---------------------------------------------------------------
Pair    | 2.172      | 2.8884     | 3.8162     |  33.3 | 56.32
Bond    | 0.067882   | 0.09124    | 0.11456    |   5.2 |  1.78
Neigh   | 0.31578    | 0.31801    | 0.32072    |   0.3 |  6.20
Comm    | 0.30529    | 1.3448     | 2.1741     |  55.1 | 26.22
Output  | 4.1008e-05 | 8.1301e-05 | 0.000175   |   0.0 |  0.00
Modify  | 0.33153    | 0.44361    | 0.55664    |  11.4 |  8.65
Other   |            | 0.04222    |            |       |  0.82

Nlocal:        1034.67 ave        1313 max         695 min
Histogram: 1 0 0 1 0 0 2 1 0 1
Nghost:        1473.33 ave        1985 max         981 min
Histogram: 1 0 0 1 1 1 1 0 0 1
Neighs:        17834.5 ave       24887 max       12615 min
Histogram: 1 0 1 0 3 0 0 0 0 1

Total # of neighbors = 107007
Ave neighs/atom = 17.236952
Ave special neighs/atom = 1.9793814
Neighbor list builds = 300
Dangerous builds = 0

if "${myDensity} > 1.0" then "jump SELF break"

next a
jump SELF loop
variable a loop 1000
change_box all x scale 0.95 y scale 0.95 z scale 0.95 remap
Changing box ...
  orthogonal box = (384.90845 373.58784 373.58784) to (815.09155 826.41216 826.41216)
  orthogonal box = (384.90845 384.90845 373.58784) to (815.09155 815.09155 826.41216)
  orthogonal box = (384.90845 384.90845 384.90845) to (815.09155 815.09155 815.09155)
run 8000
Per MPI rank memory allocation (min/avg/max) = 11.78 | 11.82 | 11.87 Mbytes
Step PotEng Temp Press KinEng Lx Ly Lz Pzz S/CPU Density 
 1158001    2506.4368    333.99918    31.188344    6179.6154    430.18311    430.18311    430.18311    31.043562            0  0.014530223 
 1166001    447.72945    327.17249  -0.28257402    6053.3088    430.18311    430.18311    430.18311   0.40812814    1455.9851  0.014530223 
Loop time of 5.49469 on 6 procs for 8000 steps with 6208 atoms

Performance: 1257.941 ns/day, 0.019 hours/ns, 1455.950 timesteps/s
99.7% CPU use with 6 MPI tasks x no OpenMP threads

MPI task timing breakdown:
Section |  min time  |  avg time  |  max time  |%varavg| %total
---------------------------------------------------------------
Pair    | 1.685      | 2.9329     | 4.1267     |  42.2 | 53.38
Bond    | 0.053561   | 0.091164   | 0.11452    |   6.6 |  1.66
Neigh   | 0.34249    | 0.34532    | 0.34867    |   0.4 |  6.28
Comm    | 0.3353     | 1.6377     | 3.0639     |  63.4 | 29.80
Output  | 4.0054e-05 | 7.5459e-05 | 0.00018096 |   0.0 |  0.00
Modify  | 0.26339    | 0.44333    | 0.55547    |  14.4 |  8.07
Other   |            | 0.04428    |            |       |  0.81

Nlocal:        1034.67 ave        1283 max         527 min
Histogram: 1 0 0 0 0 1 1 0 1 2
Nghost:        1480.50 ave        1892 max        1069 min
Histogram: 1 1 0 0 0 1 1 1 0 1
Neighs:        18727.3 ave       25267 max        8575 min
Histogram: 1 0 0 0 1 1 0 1 1 1

Total # of neighbors = 112364
Ave neighs/atom = 18.099871
Ave special neighs/atom = 1.9793814
Neighbor list builds = 304
Dangerous builds = 0

if "${myDensity} > 1.0" then "jump SELF break"

next a
jump SELF loop
variable a loop 1000
change_box all x scale 0.95 y scale 0.95 z scale 0.95 remap
Changing box ...
  orthogonal box = (395.66302 384.90845 384.90845) to (804.33698 815.09155 815.09155)
  orthogonal box = (395.66302 395.66302 384.90845) to (804.33698 804.33698 815.09155)
  orthogonal box = (395.66302 395.66302 395.66302) to (804.33698 804.33698 804.33698)
run 8000
Per MPI rank memory allocation (min/avg/max) = 11.78 | 11.82 | 11.87 Mbytes
Step PotEng Temp Press KinEng Lx Ly Lz Pzz S/CPU Density 
 1166001    2555.4418    327.17249    36.439147    6053.3088    408.67395    408.67395    408.67395    36.983085            0  0.016947337 
 1174001     285.0032    332.88013   -0.1726044    6158.9109    408.67395    408.67395    408.67395  -0.26436176    1447.3681  0.016947337 
Loop time of 5.52739 on 6 procs for 8000 steps with 6208 atoms

Performance: 1250.500 ns/day, 0.019 hours/ns, 1447.337 timesteps/s
99.7% CPU use with 6 MPI tasks x no OpenMP threads

MPI task timing breakdown:
Section |  min time  |  avg time  |  max time  |%varavg| %total
---------------------------------------------------------------
Pair    | 1.5804     | 3.0222     | 4.1337     |  45.2 | 54.68
Bond    | 0.049556   | 0.091258   | 0.11742    |   7.4 |  1.65
Neigh   | 0.35224    | 0.35432    | 0.3571     |   0.3 |  6.41
Comm    | 0.33335    | 1.5696     | 3.2103     |  70.9 | 28.40
Output  | 3.9816e-05 | 7.5976e-05 | 0.00017405 |   0.0 |  0.00
Modify  | 0.24521    | 0.44424    | 0.57009    |  15.9 |  8.04
Other   |            | 0.04569    |            |       |  0.83

Nlocal:        1034.67 ave        1376 max         537 min
Histogram: 1 0 0 1 0 0 1 1 1 1
Nghost:        1537.17 ave        1927 max        1200 min
Histogram: 1 1 0 0 1 1 1 0 0 1
Neighs:        19144.7 ave       27479 max        9717 min
Histogram: 1 0 0 1 1 0 1 1 0 1

Total # of neighbors = 114868
Ave neighs/atom = 18.503222
Ave special neighs/atom = 1.9793814
Neighbor list builds = 307
Dangerous builds = 0

if "${myDensity} > 1.0" then "jump SELF break"

next a
jump SELF loop
variable a loop 1000
change_box all x scale 0.95 y scale 0.95 z scale 0.95 remap
Changing box ...
  orthogonal box = (405.87987 395.66302 395.66302) to (794.12013 804.33698 804.33698)
  orthogonal box = (405.87987 405.87987 395.66302) to (794.12013 794.12013 804.33698)
  orthogonal box = (405.87987 405.87987 405.87987) to (794.12013 794.12013 794.12013)
run 8000
Per MPI rank memory allocation (min/avg/max) = 11.78 | 11.82 | 11.87 Mbytes
Step PotEng Temp Press KinEng Lx Ly Lz Pzz S/CPU Density 
 1174001    2412.4158    332.88013      42.8139    6158.9109    388.24025    388.24025    388.24025    43.547086            0   0.01976654 
 1182001     279.8748    325.76041  0.094107486    6027.1826    388.24025    388.24025    388.24025   0.13431766    1294.5927   0.01976654 
Loop time of 6.17966 on 6 procs for 8000 steps with 6208 atoms

Performance: 1118.507 ns/day, 0.021 hours/ns, 1294.569 timesteps/s
99.7% CPU use with 6 MPI tasks x no OpenMP threads

MPI task timing breakdown:
Section |  min time  |  avg time  |  max time  |%varavg| %total
---------------------------------------------------------------
Pair    | 1.6206     | 3.1541     | 4.6861     |  54.3 | 51.04
Bond    | 0.04734    | 0.091354   | 0.12675    |   8.6 |  1.48
Neigh   | 0.38372    | 0.38543    | 0.3878     |   0.2 |  6.24
Comm    | 0.34475    | 2.0484     | 3.792      |  75.9 | 33.15
Output  | 4.9829e-05 | 8.893e-05  | 0.00018001 |   0.0 |  0.00
Modify  | 0.23585    | 0.44475    | 0.61653    |  18.6 |  7.20
Other   |            | 0.05559    |            |       |  0.90

Nlocal:        1034.67 ave        1409 max         477 min
Histogram: 1 0 0 0 1 1 0 1 1 1
Nghost:        1638.50 ave        1848 max        1248 min
Histogram: 1 0 0 0 1 0 1 0 1 2
Neighs:        18917.7 ave       26335 max        9808 min
Histogram: 1 0 0 1 1 0 0 2 0 1

Total # of neighbors = 113506
Ave neighs/atom = 18.283827
Ave special neighs/atom = 1.9793814
Neighbor list builds = 301
Dangerous builds = 0

if "${myDensity} > 1.0" then "jump SELF break"

next a
jump SELF loop
variable a loop 1000
change_box all x scale 0.95 y scale 0.95 z scale 0.95 remap
Changing box ...
  orthogonal box = (415.58588 405.87987 405.87987) to (784.41412 794.12013 794.12013)
  orthogonal box = (415.58588 415.58588 405.87987) to (784.41412 784.41412 794.12013)
  orthogonal box = (415.58588 415.58588 415.58588) to (784.41412 784.41412 784.41412)
run 8000
Per MPI rank memory allocation (min/avg/max) = 11.78 | 11.82 | 11.87 Mbytes
Step PotEng Temp Press KinEng Lx Ly Lz Pzz S/CPU Density 
 1182001    2451.0178    325.76041    50.119583    6027.1826    368.82824    368.82824    368.82824    49.073487            0  0.023054719 
 1190001    224.32734    330.14545  0.096499723     6108.314    368.82824    368.82824    368.82824   0.49124116    1388.7874  0.023054719 
Loop time of 5.76054 on 6 procs for 8000 steps with 6208 atoms

Performance: 1199.888 ns/day, 0.020 hours/ns, 1388.759 timesteps/s
99.6% CPU use with 6 MPI tasks x no OpenMP threads

MPI task timing breakdown:
Section |  min time  |  avg time  |  max time  |%varavg| %total
---------------------------------------------------------------
Pair    | 1.5357     | 3.2058     | 4.0819     |  48.5 | 55.65
Bond    | 0.04582    | 0.09142    | 0.12028    |   8.3 |  1.59
Neigh   | 0.384      | 0.38658    | 0.38892    |   0.2 |  6.71
Comm    | 0.57177    | 1.5791     | 3.4643     |  78.2 | 27.41
Output  | 4.1962e-05 | 8.0148e-05 | 0.00017405 |   0.0 |  0.00
Modify  | 0.22658    | 0.44306    | 0.57781    |  17.8 |  7.69
Other   |            | 0.05457    |            |       |  0.95

Nlocal:        1034.67 ave        1295 max         570 min
Histogram: 1 0 0 0 0 2 0 0 0 3
Nghost:        1724.67 ave        1949 max        1276 min
Histogram: 1 0 0 0 0 1 1 0 1 2
Neighs:        20102.2 ave       27342 max        9923 min
Histogram: 1 0 0 1 0 1 1 0 0 2

Total # of neighbors = 120613
Ave neighs/atom = 19.428640
Ave special neighs/atom = 1.9793814
Neighbor list builds = 307
Dangerous builds = 0

if "${myDensity} > 1.0" then "jump SELF break"

next a
jump SELF loop
variable a loop 1000
change_box all x scale 0.95 y scale 0.95 z scale 0.95 remap
Changing box ...
  orthogonal box = (424.80659 415.58588 415.58588) to (775.19341 784.41412 784.41412)
  orthogonal box = (424.80659 424.80659 415.58588) to (775.19341 775.19341 784.41412)
  orthogonal box = (424.80659 424.80659 424.80659) to (775.19341 775.19341 775.19341)
run 8000
Per MPI rank memory allocation (min/avg/max) = 11.78 | 11.82 | 11.87 Mbytes
Step PotEng Temp Press KinEng Lx Ly Lz Pzz S/CPU Density 
 1190001    2390.8682    330.14545    58.566988     6108.314    350.38683    350.38683    350.38683    59.631982            0  0.026889889 
 1198001    246.24383    329.28662    0.2378252    6092.4242    350.38683    350.38683    350.38683   0.96653828    1368.3616  0.026889889 
Loop time of 5.84653 on 6 procs for 8000 steps with 6208 atoms

Performance: 1182.240 ns/day, 0.020 hours/ns, 1368.333 timesteps/s
99.7% CPU use with 6 MPI tasks x no OpenMP threads

MPI task timing breakdown:
Section |  min time  |  avg time  |  max time  |%varavg| %total
---------------------------------------------------------------
Pair    | 1.5325     | 3.2861     | 4.2028     |  49.0 | 56.21
Bond    | 0.047382   | 0.091187   | 0.11405    |   7.5 |  1.56
Neigh   | 0.38383    | 0.38634    | 0.3885     |   0.2 |  6.61
Comm    | 0.5723     | 1.5925     | 3.5545     |  78.7 | 27.24
Output  | 3.8862e-05 | 8.0268e-05 | 0.00018215 |   0.0 |  0.00
Modify  | 0.23393    | 0.44154    | 0.55163    |  16.2 |  7.55
Other   |            | 0.04882    |            |       |  0.84

Nlocal:        1034.67 ave        1422 max         475 min
Histogram: 1 0 0 0 1 1 0 2 0 1
Nghost:        1998.17 ave        2213 max        1602 min
Histogram: 1 0 0 1 0 0 0 1 1 2
Neighs:        20352.2 ave       29002 max        7986 min
Histogram: 1 0 0 0 1 1 1 0 1 1

Total # of neighbors = 122113
Ave neighs/atom = 19.670264
Ave special neighs/atom = 1.9793814
Neighbor list builds = 301
Dangerous builds = 0

if "${myDensity} > 1.0" then "jump SELF break"

next a
jump SELF loop
variable a loop 1000
change_box all x scale 0.95 y scale 0.95 z scale 0.95 remap
Changing box ...
  orthogonal box = (433.56626 424.80659 424.80659) to (766.43374 775.19341 775.19341)
  orthogonal box = (433.56626 433.56626 424.80659) to (766.43374 766.43374 775.19341)
  orthogonal box = (433.56626 433.56626 433.56626) to (766.43374 766.43374 766.43374)
run 8000
Per MPI rank memory allocation (min/avg/max) = 11.79 | 11.82 | 11.87 Mbytes
Step PotEng Temp Press KinEng Lx Ly Lz Pzz S/CPU Density 
 1198001    2424.4042    329.28662    68.391769    6092.4242    332.86749    332.86749    332.86749    68.974587            0  0.031363043 
 1206001     181.9455    327.43223  -0.29933862    6058.1145    332.86749    332.86749    332.86749  -0.58900725    1222.8698  0.031363043 
Loop time of 6.54206 on 6 procs for 8000 steps with 6208 atoms

Performance: 1056.548 ns/day, 0.023 hours/ns, 1222.856 timesteps/s
99.6% CPU use with 6 MPI tasks x no OpenMP threads

MPI task timing breakdown:
Section |  min time  |  avg time  |  max time  |%varavg| %total
---------------------------------------------------------------
Pair    | 1.4775     | 3.3966     | 4.8723     |  63.1 | 51.92
Bond    | 0.047578   | 0.091871   | 0.12386    |   8.5 |  1.40
Neigh   | 0.41682    | 0.42108    | 0.4234     |   0.4 |  6.44
Comm    | 0.5011     | 2.1271     | 4.2557     |  88.1 | 32.51
Output  | 0.0024738  | 0.0026328  | 0.0028689  |   0.3 |  0.04
Modify  | 0.23645    | 0.44424    | 0.59882    |  18.5 |  6.79
Other   |            | 0.05854    |            |       |  0.89

Nlocal:        1034.67 ave        1413 max         536 min
Histogram: 1 0 0 1 1 0 0 0 2 1
Nghost:        2066.00 ave        2450 max        1524 min
Histogram: 1 0 0 0 1 0 2 0 1 1
Neighs:        21593.3 ave       32347 max        7725 min
Histogram: 1 0 0 1 1 0 0 1 1 1

Total # of neighbors = 129560
Ave neighs/atom = 20.869845
Ave special neighs/atom = 1.9793814
Neighbor list builds = 307
Dangerous builds = 0

if "${myDensity} > 1.0" then "jump SELF break"

next a
jump SELF loop
variable a loop 1000
change_box all x scale 0.95 y scale 0.95 z scale 0.95 remap
Changing box ...
  orthogonal box = (441.88794 433.56626 433.56626) to (758.11206 766.43374 766.43374)
  orthogonal box = (441.88794 441.88794 433.56626) to (758.11206 758.11206 766.43374)
  orthogonal box = (441.88794 441.88794 441.88794) to (758.11206 758.11206 758.11206)
run 8000
Per MPI rank memory allocation (min/avg/max) = 11.79 | 11.83 | 11.87 Mbytes
Step PotEng Temp Press KinEng Lx Ly Lz Pzz S/CPU Density 
 1206001     2333.815    327.43223    79.675979    6058.1145    316.22411    316.22411    316.22411    78.351211            0   0.03658031 
 1214001     258.5958    324.51864   0.93412442    6004.2075    316.22411    316.22411    316.22411      2.27846    1254.7965   0.03658031 
Loop time of 6.37566 on 6 procs for 8000 steps with 6208 atoms

Performance: 1084.123 ns/day, 0.022 hours/ns, 1254.772 timesteps/s
99.7% CPU use with 6 MPI tasks x no OpenMP threads

MPI task timing breakdown:
Section |  min time  |  avg time  |  max time  |%varavg| %total
---------------------------------------------------------------
Pair    | 1.3159     | 3.49       | 4.6776     |  65.0 | 54.74
Bond    | 0.040664   | 0.091495   | 0.12171    |   9.1 |  1.44
Neigh   | 0.43201    | 0.43555    | 0.43796    |   0.3 |  6.83
Comm    | 0.53189    | 1.8619     | 4.2777     |  98.6 | 29.20
Output  | 3.8147e-05 | 8.0983e-05 | 0.00018096 |   0.0 |  0.00
Modify  | 0.20344    | 0.44289    | 0.58614    |  19.5 |  6.95
Other   |            | 0.0537     |            |       |  0.84

Nlocal:        1034.67 ave        1397 max         411 min
Histogram: 1 0 0 0 1 0 1 0 2 1
Nghost:        2259.83 ave        2779 max        1598 min
Histogram: 1 0 0 0 1 1 1 1 0 1
Neighs:        21852.0 ave       28922 max        7815 min
Histogram: 1 0 0 0 1 0 0 1 1 2

Total # of neighbors = 131112
Ave neighs/atom = 21.119845
Ave special neighs/atom = 1.9793814
Neighbor list builds = 301
Dangerous builds = 0

if "${myDensity} > 1.0" then "jump SELF break"

next a
jump SELF loop
variable a loop 1000
change_box all x scale 0.95 y scale 0.95 z scale 0.95 remap
Changing box ...
  orthogonal box = (449.79355 441.88794 441.88794) to (750.20645 758.11206 758.11206)
  orthogonal box = (449.79355 449.79355 441.88794) to (750.20645 750.20645 758.11206)
  orthogonal box = (449.79355 449.79355 449.79355) to (750.20645 750.20645 750.20645)
run 8000
Per MPI rank memory allocation (min/avg/max) = 11.80 | 11.83 | 11.87 Mbytes
Step PotEng Temp Press KinEng Lx Ly Lz Pzz S/CPU Density 
 1214001    2520.5975    324.51864    94.942616    6004.2075    300.41291    300.41291    300.41291    97.338899            0  0.042665473 
 1222001    113.88863    328.90091    1.5569843    6085.2877    300.41291    300.41291    300.41291    1.2687704     1169.598  0.042665473 
Loop time of 6.84007 on 6 procs for 8000 steps with 6208 atoms

Performance: 1010.515 ns/day, 0.024 hours/ns, 1169.578 timesteps/s
99.7% CPU use with 6 MPI tasks x no OpenMP threads

MPI task timing breakdown:
Section |  min time  |  avg time  |  max time  |%varavg| %total
---------------------------------------------------------------
Pair    | 1.2615     | 3.7382     | 5.0915     |  70.9 | 54.65
Bond    | 0.038675   | 0.091627   | 0.12001    |   9.7 |  1.34
Neigh   | 0.49474    | 0.49798    | 0.50254    |   0.4 |  7.28
Comm    | 0.52836    | 2.0142     | 4.7412     | 106.2 | 29.45
Output  | 4.6968e-05 | 8.5195e-05 | 0.000175   |   0.0 |  0.00
Modify  | 0.19212    | 0.44286    | 0.57685    |  20.9 |  6.47
Other   |            | 0.05511    |            |       |  0.81

Nlocal:        1034.67 ave        1355 max         443 min
Histogram: 1 0 0 1 0 0 1 0 0 3
Nghost:        2455.33 ave        2964 max        1813 min
Histogram: 1 0 0 1 1 0 1 0 1 1
Neighs:        24096.7 ave       33380 max        8802 min
Histogram: 1 0 1 0 0 0 0 1 2 1

Total # of neighbors = 144580
Ave neighs/atom = 23.289304
Ave special neighs/atom = 1.9793814
Neighbor list builds = 311
Dangerous builds = 0

if "${myDensity} > 1.0" then "jump SELF break"

next a
jump SELF loop
variable a loop 1000
change_box all x scale 0.95 y scale 0.95 z scale 0.95 remap
Changing box ...
  orthogonal box = (457.30387 449.79355 449.79355) to (742.69613 750.20645 750.20645)
  orthogonal box = (457.30387 457.30387 449.79355) to (742.69613 742.69613 750.20645)
  orthogonal box = (457.30387 457.30387 457.30387) to (742.69613 742.69613 742.69613)
run 8000
Per MPI rank memory allocation (min/avg/max) = 11.80 | 11.83 | 11.88 Mbytes
Step PotEng Temp Press KinEng Lx Ly Lz Pzz S/CPU Density 
 1222001    2379.6333    328.90091    110.63446    6085.2877    285.39226    285.39226    285.39226     108.7662            0  0.049762908 
 1230001    105.41605     334.3077    1.4006288    6185.3236    285.39226    285.39226    285.39226    3.2552241    1122.7539  0.049762908 
Loop time of 7.12545 on 6 procs for 8000 steps with 6208 atoms

Performance: 970.044 ns/day, 0.025 hours/ns, 1122.736 timesteps/s
99.7% CPU use with 6 MPI tasks x no OpenMP threads

MPI task timing breakdown:
Section |  min time  |  avg time  |  max time  |%varavg| %total
---------------------------------------------------------------
Pair    | 1.6371     | 3.9566     | 5.3002     |  69.8 | 55.53
Bond    | 0.044511   | 0.092035   | 0.11686    |   9.1 |  1.29
Neigh   | 0.51227    | 0.51685    | 0.52285    |   0.5 |  7.25
Comm    | 0.60203    | 2.0634     | 4.6072     | 105.7 | 28.96
Output  | 4.1008e-05 | 7.991e-05  | 0.00017405 |   0.0 |  0.00
Modify  | 0.22006    | 0.44416    | 0.56287    |  19.7 |  6.23
Other   |            | 0.05227    |            |       |  0.73

Nlocal:        1034.67 ave        1362 max         494 min
Histogram: 1 0 1 0 0 1 0 0 1 2
Nghost:        2596.83 ave        3069 max        1812 min
Histogram: 1 0 0 0 1 0 1 1 0 2
Neighs:        25683.7 ave       34513 max       10156 min
Histogram: 1 0 1 0 0 0 1 0 0 3

Total # of neighbors = 154102
Ave neighs/atom = 24.823131
Ave special neighs/atom = 1.9793814
Neighbor list builds = 307
Dangerous builds = 0

if "${myDensity} > 1.0" then "jump SELF break"

next a
jump SELF loop
variable a loop 1000
change_box all x scale 0.95 y scale 0.95 z scale 0.95 remap
Changing box ...
  orthogonal box = (464.43868 457.30387 457.30387) to (735.56132 742.69613 742.69613)
  orthogonal box = (464.43868 464.43868 457.30387) to (735.56132 735.56132 742.69613)
  orthogonal box = (464.43868 464.43868 464.43868) to (735.56132 735.56132 735.56132)
run 8000
Per MPI rank memory allocation (min/avg/max) = 11.80 | 11.83 | 11.88 Mbytes
Step PotEng Temp Press KinEng Lx Ly Lz Pzz S/CPU Density 
 1230001    2379.4964     334.3077    130.58057    6185.3236    271.12265    271.12265    271.12265    131.99398            0  0.058041006 
 1238001    127.39937    325.40974    -1.137862    6020.6946    271.12265    271.12265    271.12265   -2.2923973    922.90054  0.058041006 
Loop time of 8.66844 on 6 procs for 8000 steps with 6208 atoms

Performance: 797.375 ns/day, 0.030 hours/ns, 922.888 timesteps/s
99.7% CPU use with 6 MPI tasks x no OpenMP threads

MPI task timing breakdown:
Section |  min time  |  avg time  |  max time  |%varavg| %total
---------------------------------------------------------------
Pair    | 2.084      | 4.1962     | 6.5726     |  79.6 | 48.41
Bond    | 0.050875   | 0.092426   | 0.1327     |   9.6 |  1.07
Neigh   | 0.65429    | 0.65833    | 0.66281    |   0.4 |  7.59
Comm    | 0.64769    | 3.2057     | 5.5095     |  98.6 | 36.98
Output  | 4.2915e-05 | 9.6639e-05 | 0.00019979 |   0.0 |  0.00
Modify  | 0.25042    | 0.44464    | 0.6346     |  20.6 |  5.13
Other   |            | 0.07114    |            |       |  0.82

Nlocal:        1034.67 ave        1609 max         625 min
Histogram: 2 0 1 0 0 1 1 0 0 1
Nghost:        2900.33 ave        3427 max        2474 min
Histogram: 1 1 0 1 0 1 1 0 0 1
Neighs:        27165.5 ave       48871 max       13654 min
Histogram: 2 1 0 0 1 0 1 0 0 1

Total # of neighbors = 162993
Ave neighs/atom = 26.255316
Ave special neighs/atom = 1.9793814
Neighbor list builds = 305
Dangerous builds = 0

if "${myDensity} > 1.0" then "jump SELF break"

next a
jump SELF loop
variable a loop 1000
change_box all x scale 0.95 y scale 0.95 z scale 0.95 remap
Changing box ...
  orthogonal box = (471.21674 464.43868 464.43868) to (728.78326 735.56132 735.56132)
  orthogonal box = (471.21674 471.21674 464.43868) to (728.78326 728.78326 735.56132)
  orthogonal box = (471.21674 471.21674 471.21674) to (728.78326 728.78326 728.78326)
run 8000
Per MPI rank memory allocation (min/avg/max) = 11.80 | 11.84 | 11.88 Mbytes
Step PotEng Temp Press KinEng Lx Ly Lz Pzz S/CPU Density 
 1238001    2291.7757    325.40974    148.86548    6020.6946    257.56652    257.56652    257.56652     150.6103            0  0.067696173 
 1246001    159.43031     334.8265  -0.21838262    6194.9224    257.56652    257.56652    257.56652 -0.052195106    791.80976  0.067696173 
Loop time of 10.1036 on 6 procs for 8000 steps with 6208 atoms

Performance: 684.115 ns/day, 0.035 hours/ns, 791.800 timesteps/s
99.6% CPU use with 6 MPI tasks x no OpenMP threads

MPI task timing breakdown:
Section |  min time  |  avg time  |  max time  |%varavg| %total
---------------------------------------------------------------
Pair    | 2.4778     | 4.3183     | 7.7505     |  88.5 | 42.74
Bond    | 0.056583   | 0.092172   | 0.14529    |  10.1 |  0.91
Neigh   | 0.76385    | 0.76673    | 0.77008    |   0.3 |  7.59
Comm    | 0.72339    | 4.3967     | 6.3724     |  94.3 | 43.52
Output  | 4.1962e-05 | 9.8228e-05 | 0.00020885 |   0.0 |  0.00
Modify  | 0.27486    | 0.44221    | 0.69149    |  21.8 |  4.38
Other   |            | 0.08735    |            |       |  0.86

Nlocal:        1034.67 ave        1627 max         602 min
Histogram: 1 1 1 0 0 1 1 0 0 1
Nghost:        3120.67 ave        3827 max        2548 min
Histogram: 1 1 0 1 1 0 0 1 0 1
Neighs:        26914.5 ave       47531 max       15474 min
Histogram: 2 1 0 0 1 1 0 0 0 1

Total # of neighbors = 161487
Ave neighs/atom = 26.012726
Ave special neighs/atom = 1.9793814
Neighbor list builds = 309
Dangerous builds = 0

if "${myDensity} > 1.0" then "jump SELF break"

next a
jump SELF loop
variable a loop 1000
change_box all x scale 0.95 y scale 0.95 z scale 0.95 remap
Changing box ...
  orthogonal box = (477.65590 471.21674 471.21674) to (722.34410 728.78326 728.78326)
  orthogonal box = (477.65590 477.65590 471.21674) to (722.34410 722.34410 728.78326)
  orthogonal box = (477.65590 477.65590 477.65590) to (722.34410 722.34410 722.34410)
run 8000
Per MPI rank memory allocation (min/avg/max) = 11.80 | 11.84 | 11.89 Mbytes
Step PotEng Temp Press KinEng Lx Ly Lz Pzz S/CPU Density 
 1246001    2330.8795     334.8265    173.73553    6194.9224    244.68819    244.68819    244.68819    176.67926            0  0.078957484 
 1254001    58.746391      328.201   -1.2015272    6072.3382    244.68819    244.68819    244.68819   -2.7823386    731.44416  0.078957484 
Loop time of 10.9374 on 6 procs for 8000 steps with 6208 atoms

Performance: 631.961 ns/day, 0.038 hours/ns, 731.436 timesteps/s
99.6% CPU use with 6 MPI tasks x no OpenMP threads

MPI task timing breakdown:
Section |  min time  |  avg time  |  max time  |%varavg| %total
---------------------------------------------------------------
Pair    | 2.2538     | 4.5137     | 8.3939     | 104.9 | 41.27
Bond    | 0.051999   | 0.092246   | 0.14854    |  11.7 |  0.84
Neigh   | 0.90856    | 0.91173    | 0.9164     |   0.3 |  8.34
Comm    | 0.74979    | 4.887      | 7.33       | 108.2 | 44.68
Output  | 4.5061e-05 | 0.00010633 | 0.00021195 |   0.0 |  0.00
Modify  | 0.25448    | 0.4418     | 0.70673    |  25.1 |  4.04
Other   |            | 0.09081    |            |       |  0.83

Nlocal:        1034.67 ave        1727 max         533 min
Histogram: 2 0 1 0 0 1 0 1 0 1
Nghost:        3359.50 ave        4143 max        2685 min
Histogram: 1 0 1 1 0 1 0 1 0 1
Neighs:        29426.0 ave       58614 max       11137 min
Histogram: 2 0 1 0 1 1 0 0 0 1

Total # of neighbors = 176556
Ave neighs/atom = 28.440077
Ave special neighs/atom = 1.9793814
Neighbor list builds = 312
Dangerous builds = 0

if "${myDensity} > 1.0" then "jump SELF break"

next a
jump SELF loop
variable a loop 1000
change_box all x scale 0.95 y scale 0.95 z scale 0.95 remap
Changing box ...
  orthogonal box = (483.77311 477.65590 477.65590) to (716.22689 722.34410 722.34410)
  orthogonal box = (483.77311 483.77311 477.65590) to (716.22689 716.22689 722.34410)
  orthogonal box = (483.77311 483.77311 483.77311) to (716.22689 716.22689 716.22689)
run 8000
Per MPI rank memory allocation (min/avg/max) = 11.81 | 11.84 | 11.89 Mbytes
Step PotEng Temp Press KinEng Lx Ly Lz Pzz S/CPU Density 
 1254001    2238.6966      328.201    204.19205    6072.3382    232.45378    232.45378    232.45378    202.50123            0  0.092092123 
 1262001    53.408601    321.25357  -0.74418783    5943.7975    232.45378    232.45378    232.45378   -1.6073186    672.44255  0.092092123 
Loop time of 11.8971 on 6 procs for 8000 steps with 6208 atoms

Performance: 580.984 ns/day, 0.041 hours/ns, 672.436 timesteps/s
99.5% CPU use with 6 MPI tasks x no OpenMP threads

MPI task timing breakdown:
Section |  min time  |  avg time  |  max time  |%varavg| %total
---------------------------------------------------------------
Pair    | 1.9641     | 4.8298     | 9.211      | 119.5 | 40.60
Bond    | 0.048462   | 0.092341   | 0.15133    |  13.1 |  0.78
Neigh   | 0.9567     | 0.95965    | 0.9617     |   0.2 |  8.07
Comm    | 0.82085    | 5.47       | 8.5374     | 119.9 | 45.98
Output  | 4.1962e-05 | 0.00010252 | 0.00022006 |   0.0 |  0.00
Modify  | 0.23375    | 0.44207    | 0.71977    |  28.2 |  3.72
Other   |            | 0.103      |            |       |  0.87

Nlocal:        1034.67 ave        1673 max         553 min
Histogram: 3 0 0 0 0 0 0 2 0 1
Nghost:        3519.17 ave        3924 max        3047 min
Histogram: 1 0 0 1 0 2 0 1 0 1
Neighs:        30700.0 ave       59211 max       13783 min
Histogram: 3 0 0 0 0 1 1 0 0 1

Total # of neighbors = 184200
Ave neighs/atom = 29.671392
Ave special neighs/atom = 1.9793814
Neighbor list builds = 306
Dangerous builds = 0

if "${myDensity} > 1.0" then "jump SELF break"

next a
jump SELF loop
variable a loop 1000
change_box all x scale 0.95 y scale 0.95 z scale 0.95 remap
Changing box ...
  orthogonal box = (489.58445 483.77311 483.77311) to (710.41555 716.22689 716.22689)
  orthogonal box = (489.58445 489.58445 483.77311) to (710.41555 710.41555 716.22689)
  orthogonal box = (489.58445 489.58445 489.58445) to (710.41555 710.41555 710.41555)
run 8000
Per MPI rank memory allocation (min/avg/max) = 11.81 | 11.85 | 11.89 Mbytes
Step PotEng Temp Press KinEng Lx Ly Lz Pzz S/CPU Density 
 1262001    2233.7088    321.25357    235.56155    5943.7975    220.83109    220.83109    220.83109    237.22953            0   0.10741172 
 1270001   -31.757004    321.37128   -2.2329823    5945.9755    220.83109    220.83109    220.83109  -0.44266884    633.56887   0.10741172 
Loop time of 12.627 on 6 procs for 8000 steps with 6208 atoms

Performance: 547.398 ns/day, 0.044 hours/ns, 633.562 timesteps/s
99.6% CPU use with 6 MPI tasks x no OpenMP threads

MPI task timing breakdown:
Section |  min time  |  avg time  |  max time  |%varavg| %total
---------------------------------------------------------------
Pair    | 2.3282     | 5.1151     | 9.8496     | 122.0 | 40.51
Bond    | 0.05123    | 0.092932   | 0.14934    |  12.8 |  0.74
Neigh   | 1.0033     | 1.0076     | 1.0107     |   0.3 |  7.98
Comm    | 0.88223    | 5.8682     | 8.8435     | 120.9 | 46.47
Output  | 4.6968e-05 | 0.00011567 | 0.00023699 |   0.0 |  0.00
Modify  | 0.24806    | 0.4458     | 0.70984    |  27.3 |  3.53
Other   |            | 0.09733    |            |       |  0.77

Nlocal:        1034.67 ave        1701 max         547 min
Histogram: 2 1 0 0 0 0 2 0 0 1
Nghost:        3732.50 ave        4228 max        3336 min
Histogram: 1 2 0 0 0 1 0 1 0 1
Neighs:        32419.7 ave       64073 max       13672 min
Histogram: 2 1 0 0 1 0 1 0 0 1

Total # of neighbors = 194518
Ave neighs/atom = 31.333441
Ave special neighs/atom = 1.9793814
Neighbor list builds = 307
Dangerous builds = 0

if "${myDensity} > 1.0" then "jump SELF break"

next a
jump SELF loop
variable a loop 1000
change_box all x scale 0.95 y scale 0.95 z scale 0.95 remap
Changing box ...
  orthogonal box = (495.10523 489.58445 489.58445) to (704.89477 710.41555 710.41555)
  orthogonal box = (495.10523 495.10523 489.58445) to (704.89477 704.89477 710.41555)
  orthogonal box = (495.10523 495.10523 495.10523) to (704.89477 704.89477 704.89477)
run 8000
Per MPI rank memory allocation (min/avg/max) = 11.81 | 11.85 | 11.89 Mbytes
Step PotEng Temp Press KinEng Lx Ly Lz Pzz S/CPU Density 
 1270001    2111.9413    321.37128     272.7688    5945.9755    209.78954    209.78954    209.78954    266.81138            0   0.12527974 
 1278001   -233.81385    328.28002    2.9891323    6073.8002    209.78954    209.78954    209.78954    6.9807793    586.39135   0.12527974 
Loop time of 13.6429 on 6 procs for 8000 steps with 6208 atoms

Performance: 506.638 ns/day, 0.047 hours/ns, 586.386 timesteps/s
99.6% CPU use with 6 MPI tasks x no OpenMP threads

MPI task timing breakdown:
Section |  min time  |  avg time  |  max time  |%varavg| %total
---------------------------------------------------------------
Pair    | 2.4543     | 5.4295     | 10.607     | 130.6 | 39.80
Bond    | 0.045829   | 0.093442   | 0.1553     |  13.8 |  0.68
Neigh   | 1.1305     | 1.1345     | 1.1376     |   0.2 |  8.32
Comm    | 0.98494    | 6.4325     | 9.5885     | 127.1 | 47.15
Output  | 4.4107e-05 | 0.00011257 | 0.00022411 |   0.0 |  0.00
Modify  | 0.22394    | 0.4454     | 0.73109    |  29.4 |  3.26
Other   |            | 0.1075     |            |       |  0.79

Nlocal:        1034.67 ave        1763 max         457 min
Histogram: 1 2 0 0 0 0 2 0 0 1
Nghost:        4066.33 ave        4615 max        3558 min
Histogram: 1 0 1 1 0 1 0 0 1 1
Neighs:        35119.5 ave       75861 max       14370 min
Histogram: 3 0 0 1 0 1 0 0 0 1

Total # of neighbors = 210717
Ave neighs/atom = 33.942816
Ave special neighs/atom = 1.9793814
Neighbor list builds = 298
Dangerous builds = 0

if "${myDensity} > 1.0" then "jump SELF break"

next a
jump SELF loop
variable a loop 1000
change_box all x scale 0.95 y scale 0.95 z scale 0.95 remap
Changing box ...
  orthogonal box = (500.34997 495.10523 495.10523) to (699.65003 704.89477 704.89477)
  orthogonal box = (500.34997 500.34997 495.10523) to (699.65003 699.65003 704.89477)
  orthogonal box = (500.34997 500.34997 500.34997) to (699.65003 699.65003 699.65003)
run 8000
Per MPI rank memory allocation (min/avg/max) = 11.81 | 11.85 | 11.90 Mbytes
Step PotEng Temp Press KinEng Lx Ly Lz Pzz S/CPU Density 
 1278001    2061.6031    328.28002    331.11665    6073.8002    199.30006    199.30006    199.30006    332.40514            0   0.14612013 
 1286001    -283.8038    332.84547  -0.67284328    6158.2697    199.30006    199.30006    199.30006   -1.9529949    495.40251   0.14612013 
Loop time of 16.1486 on 6 procs for 8000 steps with 6208 atoms

Performance: 428.025 ns/day, 0.056 hours/ns, 495.399 timesteps/s
99.6% CPU use with 6 MPI tasks x no OpenMP threads

MPI task timing breakdown:
Section |  min time  |  avg time  |  max time  |%varavg| %total
---------------------------------------------------------------
Pair    | 2.4667     | 5.9102     | 12.699     | 145.2 | 36.60
Bond    | 0.045138   | 0.093458   | 0.1635     |  13.9 |  0.58
Neigh   | 1.4133     | 1.417      | 1.42       |   0.2 |  8.77
Comm    | 1.0659     | 8.1658     | 11.822     | 129.9 | 50.57
Output  | 4.4107e-05 | 0.00011524 | 0.00022602 |   0.0 |  0.00
Modify  | 0.21643    | 0.44323    | 0.77004    |  29.6 |  2.74
Other   |            | 0.1188     |            |       |  0.74

Nlocal:        1034.67 ave        1791 max         541 min
Histogram: 3 0 0 0 0 1 1 0 0 1
Nghost:        4295.00 ave        4851 max        3774 min
Histogram: 1 0 1 2 0 0 0 0 0 2
Neighs:        39716.0 ave       83392 max       17303 min
Histogram: 3 0 0 0 2 0 0 0 0 1

Total # of neighbors = 238296
Ave neighs/atom = 38.385309
Ave special neighs/atom = 1.9793814
Neighbor list builds = 312
Dangerous builds = 0

if "${myDensity} > 1.0" then "jump SELF break"

next a
jump SELF loop
variable a loop 1000
change_box all x scale 0.95 y scale 0.95 z scale 0.95 remap
Changing box ...
  orthogonal box = (505.33247 500.34997 500.34997) to (694.66753 699.65003 699.65003)
  orthogonal box = (505.33247 505.33247 500.34997) to (694.66753 694.66753 699.65003)
  orthogonal box = (505.33247 505.33247 505.33247) to (694.66753 694.66753 694.66753)
run 8000
Per MPI rank memory allocation (min/avg/max) = 11.81 | 11.85 | 11.90 Mbytes
Step PotEng Temp Press KinEng Lx Ly Lz Pzz S/CPU Density 
 1286001    1919.1564    332.84547    379.99641    6158.2697    189.33506    189.33506    189.33506    372.23573            0   0.17042732 
 1294001   -264.56952    330.26243   -2.5043319    6110.4785    189.33506    189.33506    189.33506 -0.036732346     542.6498   0.17042732 
Loop time of 14.7426 on 6 procs for 8000 steps with 6208 atoms

Performance: 468.846 ns/day, 0.051 hours/ns, 542.646 timesteps/s
99.6% CPU use with 6 MPI tasks x no OpenMP threads

MPI task timing breakdown:
Section |  min time  |  avg time  |  max time  |%varavg| %total
---------------------------------------------------------------
Pair    | 3.1469     | 6.2598     | 11.432     | 121.1 | 42.46
Bond    | 0.052453   | 0.0994     | 0.15335    |  11.4 |  0.67
Neigh   | 1.3187     | 1.3226     | 1.3251     |   0.2 |  8.97
Comm    | 1.0887     | 6.509      | 9.8162     | 125.2 | 44.15
Output  | 4.5061e-05 | 0.00010745 | 0.00022507 |   0.0 |  0.00
Modify  | 0.2518     | 0.44534    | 0.7123     |  26.9 |  3.02
Other   |            | 0.1063     |            |       |  0.72

Nlocal:        1034.67 ave        1618 max         547 min
Histogram: 1 2 0 0 0 0 1 0 1 1
Nghost:        4673.00 ave        5194 max        4089 min
Histogram: 1 0 0 2 1 0 0 0 0 2
Neighs:        39449.2 ave       72429 max       17258 min
Histogram: 1 2 0 0 0 1 1 0 0 1

Total # of neighbors = 236695
Ave neighs/atom = 38.127416
Ave special neighs/atom = 1.9793814
Neighbor list builds = 314
Dangerous builds = 0

if "${myDensity} > 1.0" then "jump SELF break"

next a
jump SELF loop
variable a loop 1000
change_box all x scale 0.95 y scale 0.95 z scale 0.95 remap
Changing box ...
  orthogonal box = (510.06585 505.33247 505.33247) to (689.93415 694.66753 694.66753)
  orthogonal box = (510.06585 510.06585 505.33247) to (689.93415 689.93415 694.66753)
  orthogonal box = (510.06585 510.06585 510.06585) to (689.93415 689.93415 689.93415)
run 8000
Per MPI rank memory allocation (min/avg/max) = 11.82 | 11.86 | 11.91 Mbytes
Step PotEng Temp Press KinEng Lx Ly Lz Pzz S/CPU Density 
 1294001    1923.6785    330.26243    442.20693    6110.4785     179.8683     179.8683     179.8683    439.87334            0   0.19877804 
 1302001   -298.49289    328.45762   -5.5909292    6077.0861     179.8683     179.8683     179.8683   -10.816469    590.40033   0.19877804 
Loop time of 13.5503 on 6 procs for 8000 steps with 6208 atoms

Performance: 510.101 ns/day, 0.047 hours/ns, 590.395 timesteps/s
99.5% CPU use with 6 MPI tasks x no OpenMP threads

MPI task timing breakdown:
Section |  min time  |  avg time  |  max time  |%varavg| %total
---------------------------------------------------------------
Pair    | 3.8119     | 6.4801     | 10.316     | 100.0 | 47.82
Bond    | 0.059409   | 0.099948   | 0.13654    |   9.5 |  0.74
Neigh   | 1.1947     | 1.1968     | 1.1991     |   0.1 |  8.83
Comm    | 1.2189     | 5.233      | 8.0683     | 117.4 | 38.62
Output  | 0.002548   | 0.0026932  | 0.0029893  |   0.3 |  0.02
Modify  | 0.2833     | 0.44695    | 0.63772    |  22.5 |  3.30
Other   |            | 0.09066    |            |       |  0.67

Nlocal:        1034.67 ave        1554 max         635 min
Histogram: 1 2 0 0 0 1 0 1 0 1
Nghost:        5119.00 ave        5661 max        4384 min
Histogram: 1 0 0 0 1 2 0 0 0 2
Neighs:        40745.7 ave       64698 max       24953 min
Histogram: 3 0 0 0 0 1 0 1 0 1

Total # of neighbors = 244474
Ave neighs/atom = 39.380477
Ave special neighs/atom = 1.9793814
Neighbor list builds = 308
Dangerous builds = 0

if "${myDensity} > 1.0" then "jump SELF break"

next a
jump SELF loop
variable a loop 1000
change_box all x scale 0.95 y scale 0.95 z scale 0.95 remap
Changing box ...
  orthogonal box = (514.56256 510.06585 510.06585) to (685.43744 689.93415 689.93415)
  orthogonal box = (514.56256 514.56256 510.06585) to (685.43744 685.43744 689.93415)
  orthogonal box = (514.56256 514.56256 514.56256) to (685.43744 685.43744 685.43744)
run 8000
Per MPI rank memory allocation (min/avg/max) = 11.84 | 11.87 | 11.92 Mbytes
Step PotEng Temp Press KinEng Lx Ly Lz Pzz S/CPU Density 
 1302001    1894.4905    328.45762    525.05971    6077.0861    170.87489    170.87489    170.87489    512.38436            0   0.23184492 
 1310001   -333.40899    326.47505   -1.2100167    6040.4049    170.87489    170.87489    170.87489    3.3092708    618.78551   0.23184492 
Loop time of 12.9287 on 6 procs for 8000 steps with 6208 atoms

Performance: 534.625 ns/day, 0.045 hours/ns, 618.779 timesteps/s
99.6% CPU use with 6 MPI tasks x no OpenMP threads

MPI task timing breakdown:
Section |  min time  |  avg time  |  max time  |%varavg| %total
---------------------------------------------------------------
Pair    | 3.8568     | 7.0204     | 9.8442     |  79.6 | 54.30
Bond    | 0.06141    | 0.10191    | 0.13566    |   8.1 |  0.79
Neigh   | 1.1173     | 1.1184     | 1.12       |   0.1 |  8.65
Comm    | 1.2347     | 4.1627     | 7.487      | 108.8 | 32.20
Output  | 4.3154e-05 | 8.7937e-05 | 0.00020695 |   0.0 |  0.00
Modify  | 0.28864    | 0.4506     | 0.62904    |  17.6 |  3.49
Other   |            | 0.07462    |            |       |  0.58

Nlocal:        1034.67 ave        1430 max         623 min
Histogram: 1 0 0 1 1 1 0 1 0 1
Nghost:        5578.50 ave        6178 max        4739 min
Histogram: 1 0 0 0 1 2 0 0 0 2
Neighs:        43000.7 ave       59337 max       20676 min
Histogram: 1 0 0 0 1 2 0 0 0 2

Total # of neighbors = 258004
Ave neighs/atom = 41.559923
Ave special neighs/atom = 1.9793814
Neighbor list builds = 307
Dangerous builds = 0

if "${myDensity} > 1.0" then "jump SELF break"

next a
jump SELF loop
variable a loop 1000
change_box all x scale 0.95 y scale 0.95 z scale 0.95 remap
Changing box ...
  orthogonal box = (518.83443 514.56256 514.56256) to (681.16557 685.43744 685.43744)
  orthogonal box = (518.83443 518.83443 514.56256) to (681.16557 681.16557 685.43744)
  orthogonal box = (518.83443 518.83443 518.83443) to (681.16557 681.16557 681.16557)
run 8000
Per MPI rank memory allocation (min/avg/max) = 11.84 | 11.88 | 11.93 Mbytes
Step PotEng Temp Press KinEng Lx Ly Lz Pzz S/CPU Density 
 1310001    1892.2278    326.47505    605.59925    6040.4049    162.33115    162.33115    162.33115    607.99072            0   0.27041251 
 1318001   -452.66937    328.16334    8.4976889    6071.6413    162.33115    162.33115    162.33115   -1.9424179     642.5353   0.27041251 
Loop time of 12.4509 on 6 procs for 8000 steps with 6208 atoms

Performance: 555.142 ns/day, 0.043 hours/ns, 642.525 timesteps/s
99.5% CPU use with 6 MPI tasks x no OpenMP threads

MPI task timing breakdown:
Section |  min time  |  avg time  |  max time  |%varavg| %total
---------------------------------------------------------------
Pair    | 4.1529     | 7.2996     | 9.3389     |  61.1 | 58.63
Bond    | 0.062702   | 0.10405    | 0.1311     |   6.9 |  0.84
Neigh   | 1.0857     | 1.0865     | 1.0878     |   0.1 |  8.73
Comm    | 1.3357     | 3.44       | 6.7458     |  93.4 | 27.63
Output  | 4.0054e-05 | 9.1553e-05 | 0.000283   |   0.0 |  0.00
Modify  | 0.29269    | 0.45188    | 0.56834    |  12.9 |  3.63
Other   |            | 0.06868    |            |       |  0.55

Nlocal:        1034.67 ave        1201 max         615 min
Histogram: 1 0 0 0 0 1 0 0 2 2
Nghost:        5901.50 ave        6218 max        5431 min
Histogram: 1 0 0 0 0 1 2 0 1 1
Neighs:        46462.5 ave       63995 max       20531 min
Histogram: 1 0 0 0 0 1 2 1 0 1

Total # of neighbors = 278775
Ave neighs/atom = 44.905767
Ave special neighs/atom = 1.9793814
Neighbor list builds = 304
Dangerous builds = 0

if "${myDensity} > 1.0" then "jump SELF break"

next a
jump SELF loop
variable a loop 1000
change_box all x scale 0.95 y scale 0.95 z scale 0.95 remap
Changing box ...
  orthogonal box = (522.89271 518.83443 518.83443) to (677.10729 681.16557 681.16557)
  orthogonal box = (522.89271 522.89271 518.83443) to (677.10729 677.10729 681.16557)
  orthogonal box = (522.89271 522.89271 522.89271) to (677.10729 677.10729 677.10729)
run 8000
Per MPI rank memory allocation (min/avg/max) = 11.85 | 11.88 | 11.93 Mbytes
Step PotEng Temp Press KinEng Lx Ly Lz Pzz S/CPU Density 
 1318001    1895.4457    328.16334    727.06416    6071.6413    154.21459    154.21459    154.21459    716.29443            0   0.31539584 
 1326001   -455.49387    326.45347   -8.9077183    6040.0055    154.21459    154.21459    154.21459   -7.5253894    623.36949   0.31539584 
Loop time of 12.8336 on 6 procs for 8000 steps with 6208 atoms

Performance: 538.585 ns/day, 0.045 hours/ns, 623.363 timesteps/s
99.1% CPU use with 6 MPI tasks x no OpenMP threads

MPI task timing breakdown:
Section |  min time  |  avg time  |  max time  |%varavg| %total
---------------------------------------------------------------
Pair    | 3.6072     | 7.7236     | 9.2408     |  69.3 | 60.18
Bond    | 0.058199   | 0.10376    | 0.13195    |   7.1 |  0.81
Neigh   | 1.1185     | 1.1211     | 1.1258     |   0.2 |  8.74
Comm    | 1.7963     | 3.3447     | 7.6537     | 110.2 | 26.06
Output  | 4.6968e-05 | 8.4758e-05 | 0.00021911 |   0.0 |  0.00
Modify  | 0.26913    | 0.45308    | 0.54555    |  13.4 |  3.53
Other   |            | 0.08726    |            |       |  0.68

Nlocal:        1034.67 ave        1252 max         593 min
Histogram: 1 0 0 0 0 0 2 1 0 2
Nghost:        6610.17 ave        7020 max        5900 min
Histogram: 1 0 0 0 0 1 1 1 1 1
Neighs:        48705.2 ave       59547 max       22203 min
Histogram: 1 0 0 0 0 0 1 1 1 2

Total # of neighbors = 292231
Ave neighs/atom = 47.073293
Ave special neighs/atom = 1.9793814
Neighbor list builds = 308
Dangerous builds = 0

if "${myDensity} > 1.0" then "jump SELF break"

next a
jump SELF loop
variable a loop 1000
change_box all x scale 0.95 y scale 0.95 z scale 0.95 remap
Changing box ...
  orthogonal box = (526.74807 522.89271 522.89271) to (673.25193 677.10729 677.10729)
  orthogonal box = (526.74807 526.74807 522.89271) to (673.25193 673.25193 677.10729)
  orthogonal box = (526.74807 526.74807 526.74807) to (673.25193 673.25193 673.25193)
run 8000
Per MPI rank memory allocation (min/avg/max) = 11.85 | 11.89 | 11.94 Mbytes
Step PotEng Temp Press KinEng Lx Ly Lz Pzz S/CPU Density 
 1326001    1767.6663    326.45347    834.05145    6040.0055    146.50386    146.50386    146.50386    838.36513            0   0.36786218 
 1334001   -577.67074     322.3821     1.133553    5964.6776    146.50386    146.50386    146.50386   -2.1609985    545.62466   0.36786218 
Loop time of 14.6639 on 6 procs for 8000 steps with 6208 atoms

Performance: 471.363 ns/day, 0.051 hours/ns, 545.559 timesteps/s
98.6% CPU use with 6 MPI tasks x no OpenMP threads

MPI task timing breakdown:
Section |  min time  |  avg time  |  max time  |%varavg| %total
---------------------------------------------------------------
Pair    | 3.8695     | 8.2882     | 10.882     |  76.1 | 56.52
Bond    | 0.057079   | 0.10429    | 0.13503    |   7.6 |  0.71
Neigh   | 1.3067     | 1.3103     | 1.3138     |   0.2 |  8.94
Comm    | 1.7606     | 4.3854     | 9.0024     | 108.4 | 29.91
Output  | 4.1008e-05 | 0.00035385 | 0.001853   |   0.0 |  0.00
Modify  | 0.26652    | 0.45519    | 0.54605    |  13.8 |  3.10
Other   |            | 0.1201     |            |       |  0.82

Nlocal:        1034.67 ave        1357 max         505 min
Histogram: 1 0 0 0 0 1 1 2 0 1
Nghost:        7132.33 ave        7628 max        6532 min
Histogram: 1 0 0 0 1 1 2 0 0 1
Neighs:        52205.5 ave       75329 max       18298 min
Histogram: 1 0 0 0 0 0 3 1 0 1

Total # of neighbors = 313233
Ave neighs/atom = 50.456347
Ave special neighs/atom = 1.9793814
Neighbor list builds = 305
Dangerous builds = 0

if "${myDensity} > 1.0" then "jump SELF break"

next a
jump SELF loop
variable a loop 1000
change_box all x scale 0.95 y scale 0.95 z scale 0.95 remap
Changing box ...
  orthogonal box = (530.41067 526.74807 526.74807) to (669.58933 673.25193 673.25193)
  orthogonal box = (530.41067 530.41067 526.74807) to (669.58933 669.58933 673.25193)
  orthogonal box = (530.41067 530.41067 530.41067) to (669.58933 669.58933 669.58933)
run 8000
Per MPI rank memory allocation (min/avg/max) = 11.87 | 11.90 | 11.95 Mbytes
Step PotEng Temp Press KinEng Lx Ly Lz Pzz S/CPU Density 
 1334001    1704.6755     322.3821    975.66162    5964.6776    139.17867    139.17867    139.17867     976.4264            0   0.42905634 
 1342001   -687.56154    329.03134   -13.925965     6087.701    139.17867    139.17867    139.17867   -3.7715667    503.36078   0.42905634 
Loop time of 15.8932 on 6 procs for 8000 steps with 6208 atoms

Performance: 434.902 ns/day, 0.055 hours/ns, 503.358 timesteps/s
97.5% CPU use with 6 MPI tasks x no OpenMP threads

MPI task timing breakdown:
Section |  min time  |  avg time  |  max time  |%varavg| %total
---------------------------------------------------------------
Pair    | 4.5555     | 9.0976     | 11.753     |  74.8 | 57.24
Bond    | 0.059904   | 0.10747    | 0.14752    |   7.9 |  0.68
Neigh   | 1.4212     | 1.4253     | 1.4323     |   0.3 |  8.97
Comm    | 1.9255     | 4.6235     | 9.328      | 108.2 | 29.09
Output  | 3.9101e-05 | 6.2346e-05 | 0.000144   |   0.0 |  0.00
Modify  | 0.27263    | 0.45548    | 0.5263     |  12.5 |  2.87
Other   |            | 0.1838     |            |       |  1.16

Nlocal:        1034.67 ave        1160 max         697 min
Histogram: 1 0 0 0 0 0 1 1 0 3
Nghost:        7823.17 ave        8126 max        7402 min
Histogram: 1 0 0 0 1 1 0 2 0 1
Neighs:        56609.0 ave       72700 max       31788 min
Histogram: 1 0 0 0 1 1 0 1 0 2

Total # of neighbors = 339654
Ave neighs/atom = 54.712307
Ave special neighs/atom = 1.9793814
Neighbor list builds = 307
Dangerous builds = 0

if "${myDensity} > 1.0" then "jump SELF break"

next a
jump SELF loop
variable a loop 1000
change_box all x scale 0.95 y scale 0.95 z scale 0.95 remap
Changing box ...
  orthogonal box = (533.89013 530.41067 530.41067) to (666.10987 669.58933 669.58933)
  orthogonal box = (533.89013 533.89013 530.41067) to (666.10987 666.10987 669.58933)
  orthogonal box = (533.89013 533.89013 533.89013) to (666.10987 666.10987 666.10987)
run 8000
Per MPI rank memory allocation (min/avg/max) = 11.88 | 11.91 | 11.95 Mbytes
Step PotEng Temp Press KinEng Lx Ly Lz Pzz S/CPU Density 
 1342001    1506.7395    329.03134    1127.8892     6087.701    132.21973    132.21973    132.21973    1129.7676            0    0.5004302 
 1350001   -840.17692    326.32856   -4.8350703    6037.6945    132.21973    132.21973    132.21973    10.950485    455.56097    0.5004302 
Loop time of 17.5609 on 6 procs for 8000 steps with 6208 atoms

Performance: 393.602 ns/day, 0.061 hours/ns, 455.557 timesteps/s
97.3% CPU use with 6 MPI tasks x no OpenMP threads

MPI task timing breakdown:
Section |  min time  |  avg time  |  max time  |%varavg| %total
---------------------------------------------------------------
Pair    | 6.0272     | 10.129     | 13.364     |  75.0 | 57.68
Bond    | 0.071898   | 0.10961    | 0.14371    |   7.0 |  0.62
Neigh   | 1.4226     | 1.4258     | 1.43       |   0.2 |  8.12
Comm    | 1.9115     | 5.2347     | 9.4439     | 106.7 | 29.81
Output  | 4.7207e-05 | 9.3023e-05 | 0.00023007 |   0.0 |  0.00
Modify  | 0.31903    | 0.45817    | 0.55921    |  11.0 |  2.61
Other   |            | 0.2035     |            |       |  1.16

Nlocal:        1034.67 ave        1307 max         734 min
Histogram: 1 0 1 0 1 1 0 0 1 1
Nghost:        8533.83 ave        8798 max        8328 min
Histogram: 1 2 0 0 0 0 2 0 0 1
Neighs:        62702.5 ave       90209 max       37069 min
Histogram: 2 0 0 0 0 2 0 1 0 1

Total # of neighbors = 376215
Ave neighs/atom = 60.601643
Ave special neighs/atom = 1.9793814
Neighbor list builds = 306
Dangerous builds = 0

if "${myDensity} > 1.0" then "jump SELF break"

next a
jump SELF loop
variable a loop 1000
change_box all x scale 0.95 y scale 0.95 z scale 0.95 remap
Changing box ...
  orthogonal box = (537.19563 533.89013 533.89013) to (662.80437 666.10987 666.10987)
  orthogonal box = (537.19563 537.19563 533.89013) to (662.80437 662.80437 666.10987)
  orthogonal box = (537.19563 537.19563 537.19563) to (662.80437 662.80437 662.80437)
run 8000
Per MPI rank memory allocation (min/avg/max) = 11.88 | 11.98 | 12.27 Mbytes
Step PotEng Temp Press KinEng Lx Ly Lz Pzz S/CPU Density 
 1350001    1456.7044    326.32856    1348.9902    6037.6945    125.60875    125.60875    125.60875    1368.0707            0   0.58367716 
 1358001   -1026.4548    322.59916    17.884284    5968.6936    125.60875    125.60875    125.60875    29.548718    439.71402   0.58367716 
Loop time of 18.1938 on 6 procs for 8000 steps with 6208 atoms

Performance: 379.910 ns/day, 0.063 hours/ns, 439.711 timesteps/s
96.5% CPU use with 6 MPI tasks x no OpenMP threads

MPI task timing breakdown:
Section |  min time  |  avg time  |  max time  |%varavg| %total
---------------------------------------------------------------
Pair    | 8.6983     | 11.181     | 13.376     |  48.5 | 61.45
Bond    | 0.089181   | 0.10767    | 0.14701    |   5.7 |  0.59
Neigh   | 1.5424     | 1.545      | 1.5485     |   0.1 |  8.49
Comm    | 2.4313     | 4.6623     | 7.2137     |  77.0 | 25.63
Output  | 4.5061e-05 | 6.9896e-05 | 0.00016713 |   0.0 |  0.00
Modify  | 0.39438    | 0.46064    | 0.5142     |   5.7 |  2.53
Other   |            | 0.2371     |            |       |  1.30

Nlocal:        1034.67 ave        1138 max         985 min
Histogram: 1 2 1 1 0 0 0 0 0 1
Nghost:        9403.83 ave        9476 max        9352 min
Histogram: 2 1 0 0 0 0 1 1 0 1
Neighs:        68848.7 ave       82091 max       62158 min
Histogram: 2 0 1 2 0 0 0 0 0 1

Total # of neighbors = 413092
Ave neighs/atom = 66.541881
Ave special neighs/atom = 1.9793814
Neighbor list builds = 310
Dangerous builds = 0

if "${myDensity} > 1.0" then "jump SELF break"

next a
jump SELF loop
variable a loop 1000
change_box all x scale 0.95 y scale 0.95 z scale 0.95 remap
Changing box ...
  orthogonal box = (540.33585 537.19563 537.19563) to (659.66415 662.80437 662.80437)
  orthogonal box = (540.33585 540.33585 537.19563) to (659.66415 659.66415 662.80437)
  orthogonal box = (540.33585 540.33585 540.33585) to (659.66415 659.66415 659.66415)
run 8000
Per MPI rank memory allocation (min/avg/max) = 11.90 | 11.99 | 12.28 Mbytes
Step PotEng Temp Press KinEng Lx Ly Lz Pzz S/CPU Density 
 1358001     1386.781    322.59916    1604.9418    5968.6936    119.32831    119.32831    119.32831    1620.1915            0   0.68077231 
 1366001   -1325.9086    328.56313    19.742036    6079.0382    119.32831    119.32831    119.32831    10.617711     439.1205   0.68077231 
Loop time of 18.2184 on 6 procs for 8000 steps with 6208 atoms

Performance: 379.397 ns/day, 0.063 hours/ns, 439.117 timesteps/s
96.1% CPU use with 6 MPI tasks x no OpenMP threads

MPI task timing breakdown:
Section |  min time  |  avg time  |  max time  |%varavg| %total
---------------------------------------------------------------
Pair    | 11.535     | 12.69      | 13.459     |  18.0 | 69.66
Bond    | 0.099138   | 0.10884    | 0.14331    |   4.8 |  0.60
Neigh   | 1.5505     | 1.5519     | 1.5531     |   0.1 |  8.52
Comm    | 2.2931     | 3.1534     | 4.3496     |  37.8 | 17.31
Output  | 4.6015e-05 | 7.7566e-05 | 0.00019002 |   0.0 |  0.00
Modify  | 0.43324    | 0.46159    | 0.48144    |   2.1 |  2.53
Other   |            | 0.2522     |            |       |  1.38

Nlocal:        1034.67 ave        1107 max         981 min
Histogram: 1 2 0 1 0 0 0 0 1 1
Nghost:        10467.0 ave       10517 max       10395 min
Histogram: 2 0 0 0 0 0 0 1 2 1
Neighs:        78047.7 ave       88509 max       68523 min
Histogram: 1 1 0 1 0 1 0 0 1 1

Total # of neighbors = 468286
Ave neighs/atom = 75.432668
Ave special neighs/atom = 1.9793814
Neighbor list builds = 309
Dangerous builds = 0

if "${myDensity} > 1.0" then "jump SELF break"

next a
jump SELF loop
variable a loop 1000
change_box all x scale 0.95 y scale 0.95 z scale 0.95 remap
Changing box ...
  orthogonal box = (543.31905 540.33585 540.33585) to (656.68095 659.66415 659.66415)
  orthogonal box = (543.31905 543.31905 540.33585) to (656.68095 656.68095 659.66415)
  orthogonal box = (543.31905 543.31905 543.31905) to (656.68095 656.68095 656.68095)
run 8000
Per MPI rank memory allocation (min/avg/max) = 11.91 | 12.13 | 12.35 Mbytes
Step PotEng Temp Press KinEng Lx Ly Lz Pzz S/CPU Density 
 1366001    1148.4711    328.56313    1928.4769    6079.0382    113.36189    113.36189    113.36189    1910.0056            0   0.79401931 
 1374001   -1807.2619    331.75234    20.922106    6138.0447    113.36189    113.36189    113.36189    5.5023568    391.89312   0.79401931 
Loop time of 20.4139 on 6 procs for 8000 steps with 6208 atoms

Performance: 338.594 ns/day, 0.071 hours/ns, 391.891 timesteps/s
96.2% CPU use with 6 MPI tasks x no OpenMP threads

MPI task timing breakdown:
Section |  min time  |  avg time  |  max time  |%varavg| %total
---------------------------------------------------------------
Pair    | 13.949     | 14.634     | 15.304     |  10.4 | 71.69
Bond    | 0.10753    | 0.11569    | 0.14822    |   4.3 |  0.57
Neigh   | 1.7592     | 1.76       | 1.7607     |   0.0 |  8.62
Comm    | 2.4104     | 3.1721     | 3.89       |  24.2 | 15.54
Output  | 4.1008e-05 | 6.3022e-05 | 0.00015402 |   0.0 |  0.00
Modify  | 0.45399    | 0.46282    | 0.48031    |   1.3 |  2.27
Other   |            | 0.2692     |            |       |  1.32

Nlocal:        1034.67 ave        1067 max        1007 min
Histogram: 2 0 1 0 0 0 0 1 1 1
Nghost:        11338.8 ave       11404 max       11270 min
Histogram: 1 0 1 0 2 0 0 0 0 2
Neighs:        90348.0 ave       95565 max       84778 min
Histogram: 1 1 1 0 0 0 0 1 0 2

Total # of neighbors = 542088
Ave neighs/atom = 87.320876
Ave special neighs/atom = 1.9793814
Neighbor list builds = 307
Dangerous builds = 0

if "${myDensity} > 1.0" then "jump SELF break"

next a
jump SELF loop
variable a loop 1000
change_box all x scale 0.95 y scale 0.95 z scale 0.95 remap
Changing box ...
  orthogonal box = (546.15310 543.31905 543.31905) to (653.84690 656.68095 656.68095)
  orthogonal box = (546.15310 546.15310 543.31905) to (653.84690 653.84690 656.68095)
  orthogonal box = (546.15310 546.15310 546.15310) to (653.84690 653.84690 653.84690)
run 8000
Per MPI rank memory allocation (min/avg/max) = 12.30 | 12.33 | 12.38 Mbytes
Step PotEng Temp Press KinEng Lx Ly Lz Pzz S/CPU Density 
 1374001    728.35064    331.75234    2306.5328    6138.0447     107.6938     107.6938     107.6938    2342.5006            0   0.92610504 
 1382001   -2299.0091    329.58754    133.56637    6097.9917     107.6938     107.6938     107.6938     146.6006    352.63412   0.92610504 
Loop time of 22.6866 on 6 procs for 8000 steps with 6208 atoms

Performance: 304.673 ns/day, 0.079 hours/ns, 352.631 timesteps/s
96.4% CPU use with 6 MPI tasks x no OpenMP threads

MPI task timing breakdown:
Section |  min time  |  avg time  |  max time  |%varavg| %total
---------------------------------------------------------------
Pair    | 16.805     | 16.95      | 17.231     |   3.5 | 74.71
Bond    | 0.10805    | 0.11521    | 0.14116    |   3.5 |  0.51
Neigh   | 1.8021     | 1.8035     | 1.805      |   0.1 |  7.95
Comm    | 2.7141     | 3.0682     | 3.2492     |   9.8 | 13.52
Output  | 4.5061e-05 | 8.0228e-05 | 0.00022411 |   0.0 |  0.00
Modify  | 0.45335    | 0.46228    | 0.47271    |   1.0 |  2.04
Other   |            | 0.2875     |            |       |  1.27

Nlocal:        1034.67 ave        1049 max        1020 min
Histogram: 1 0 2 0 0 0 1 0 1 1
Nghost:        12551.8 ave       12612 max       12506 min
Histogram: 2 0 0 0 2 0 1 0 0 1
Neighs:        105202.0 ave      109144 max      102526 min
Histogram: 1 0 2 1 1 0 0 0 0 1

Total # of neighbors = 631210
Ave neighs/atom = 101.67687
Ave special neighs/atom = 1.9793814
Neighbor list builds = 312
Dangerous builds = 0

if "${myDensity} > 1.0" then "jump SELF break"

next a
jump SELF loop
variable a loop 1000
change_box all x scale 0.95 y scale 0.95 z scale 0.95 remap
Changing box ...
  orthogonal box = (548.84545 546.15310 546.15310) to (651.15455 653.84690 653.84690)
  orthogonal box = (548.84545 548.84545 546.15310) to (651.15455 651.15455 653.84690)
  orthogonal box = (548.84545 548.84545 548.84545) to (651.15455 651.15455 651.15455)
run 8000
Per MPI rank memory allocation (min/avg/max) = 12.32 | 12.35 | 12.40 Mbytes
Step PotEng Temp Press KinEng Lx Ly Lz Pzz S/CPU Density 
 1382001     749.4119    329.58754    3015.5663    6097.9917    102.30911    102.30911    102.30911    3063.9563            0    1.0801633 
 1390001   -3056.0899      330.681    471.42891    6118.2229    102.30911    102.30911    102.30911    438.97477    303.23304    1.0801633 
Loop time of 26.3825 on 6 procs for 8000 steps with 6208 atoms

Performance: 261.992 ns/day, 0.092 hours/ns, 303.232 timesteps/s
96.4% CPU use with 6 MPI tasks x no OpenMP threads

MPI task timing breakdown:
Section |  min time  |  avg time  |  max time  |%varavg| %total
---------------------------------------------------------------
Pair    | 18.779     | 19.701     | 20.702     |  12.7 | 74.67
Bond    | 0.098126   | 0.10867    | 0.131      |   3.4 |  0.41
Neigh   | 2.1888     | 2.1906     | 2.1934     |   0.1 |  8.30
Comm    | 2.6226     | 3.6139     | 4.5717     |  30.1 | 13.70
Output  | 4.3869e-05 | 6.628e-05  | 0.00016093 |   0.0 |  0.00
Modify  | 0.45456    | 0.4626     | 0.47086    |   1.0 |  1.75
Other   |            | 0.3057     |            |       |  1.16

Nlocal:        1034.67 ave        1054 max        1024 min
Histogram: 2 0 1 0 2 0 0 0 0 1
Nghost:        13781.5 ave       13813 max       13756 min
Histogram: 1 1 1 0 1 0 0 0 1 1
Neighs:        122907.0 ave      127533 max      118353 min
Histogram: 2 0 0 0 1 1 0 0 1 1

Total # of neighbors = 737442
Ave neighs/atom = 118.78898
Ave special neighs/atom = 1.9793814
Neighbor list builds = 318
Dangerous builds = 0

if "${myDensity} > 1.0" then "jump SELF break"
jump SELF break

####Replicate to form slab

replicate 1 1 7
Replicating atoms ...
  orthogonal box = (548.84545 548.84545 548.84545) to (651.15455 651.15455 1265.0092)
  1 by 1 by 6 MPI processor grid
  43456 atoms
  43008 bonds
Finding 1-2 1-3 1-4 neighbors ...
  special bond factors lj:    0        1        1       
  special bond factors coul:  0        1        1       
     2 = max # of 1-2 neighbors
     6 = max # of special neighbors
  special bonds CPU = 0.001 seconds
  replicate CPU = 0.007 seconds

run 1
Per MPI rank memory allocation (min/avg/max) = 26.63 | 26.66 | 26.71 Mbytes
Step PotEng Temp Press KinEng Lx Ly Lz Pzz S/CPU Density 
 1390001   -21392.629    330.63535    471.42891     42827.56    102.30911    102.30911    716.16376    438.97477            0    1.0801633 
 1390002   -21421.331    330.81067    470.97692     42850.27    102.30911    102.30911    716.16376    439.04135    44.488211    1.0801633 
Loop time of 0.0225317 on 6 procs for 1 steps with 43456 atoms

Performance: 38.346 ns/day, 0.626 hours/ns, 44.382 timesteps/s
99.7% CPU use with 6 MPI tasks x no OpenMP threads

MPI task timing breakdown:
Section |  min time  |  avg time  |  max time  |%varavg| %total
---------------------------------------------------------------
Pair    | 0.019653   | 0.020405   | 0.021276   |   0.4 | 90.56
Bond    | 0.00016093 | 0.00016892 | 0.00017595 |   0.0 |  0.75
Neigh   | 0          | 0          | 0          |   0.0 |  0.00
Comm    | 0.00044584 | 0.0012257  | 0.0020649  |   1.5 |  5.44
Output  | 0.000108   | 0.00022451 | 0.00063205 |   0.0 |  1.00
Modify  | 0.00039387 | 0.00040213 | 0.00040603 |   0.0 |  1.78
Other   |            | 0.0001055  |            |       |  0.47

Nlocal:        7242.67 ave        7263 max        7220 min
Histogram: 1 1 0 0 0 2 0 0 1 1
Nghost:        29442.2 ave       29474 max       29401 min
Histogram: 2 0 0 0 0 0 0 2 1 1
Neighs:        860646.0 ave      866577 max      855973 min
Histogram: 1 1 1 0 1 0 0 1 0 1

Total # of neighbors = 5163879
Ave neighs/atom = 118.83006
Ave special neighs/atom = 1.9793814
Neighbor list builds = 0
Dangerous builds = 0

###Delete replicated atoms

group under molecule < 129
12416 atoms in group under
group over molecule  > 192
24832 atoms in group over
group replica union under over
37248 atoms in group replica
delete_atoms group replica
WARNING: Ignoring 'compress yes' for molecular system (../delete_atoms.cpp:125)
Deleted 37248 atoms, new total = 6208

###Run simulation

fix           fixcentro all recenter INIT INIT INIT
fix           fxbal  all balance 1000 1.05 rcb

compute densidad all chunk/atom bin/1d z lower 0.01 units reduced
fix 3 all ave/chunk 1000 70 100000 densidad density/mass file den-$d-$T.profile
fix 3 all ave/chunk 1000 70 100000 densidad density/mass file den-TIA_WT-$T.profile
fix 3 all ave/chunk 1000 70 100000 densidad density/mass file den-TIA_WT-320.profile

compute  rad all gyration
variable t equal step
variable r equal c_rad
fix      radfile all print 10000 "$t $r" file rad-$d-$T.dat screen no
fix      radfile all print 10000 "$t $r" file rad-TIA_WT-$T.dat screen no
fix      radfile all print 10000 "$t $r" file rad-TIA_WT-320.dat screen no

compute	msd all msd com yes
fix	msd all ave/time 1 1 10000 c_msd[4] file mds-$d-$T.dat
fix	msd all ave/time 1 1 10000 c_msd[4] file mds-TIA_WT-$T.dat
fix	msd all ave/time 1 1 10000 c_msd[4] file mds-TIA_WT-320.dat

run 10000000
Per MPI rank memory allocation (min/avg/max) = 28.87 | 29.14 | 30.08 Mbytes
Step PotEng Temp Press KinEng Lx Ly Lz Pzz S/CPU Density 
 1390002   -2273.7277    330.83259    62.898625    6121.0275    102.30911    102.30911    716.16376    58.949393            0   0.15430905 
 2000000   -1076.3621    316.21804  -0.86218363    5850.6307    102.30911    102.30911    716.16376   -5.9147026    523.91492   0.15430905 
 3000000   -1139.0335    325.23884  -0.36418382    6017.5325    102.30911    102.30911    716.16376  -0.58744232    529.86853   0.15430905 
 4000000   -1149.7668    318.87209    1.1997004    5899.7356    102.30911    102.30911    716.16376  -0.37343918    530.59095   0.15430905 
 5000000   -1067.4275    320.71131   -5.8767143    5933.7648    102.30911    102.30911    716.16376   -3.9047548    530.14136   0.15430905 
 6000000   -972.09824     316.4948   -3.2664259    5855.7513    102.30911    102.30911    716.16376   -0.7470813    528.64289   0.15430905 
 7000000   -1050.1047    317.49497   -2.1441532    5874.2563    102.30911    102.30911    716.16376   0.77409119    529.95223   0.15430905 
 8000000   -1007.0066    326.80072   -4.1966563    6046.4304    102.30911    102.30911    716.16376   -3.7036413    529.71564   0.15430905 
 9000000   -1005.3484    321.37637   -3.1841388    5946.0695    102.30911    102.30911    716.16376   0.95933774    533.97445   0.15430905 
10000000   -1154.6001    323.53496    3.2029079    5986.0075    102.30911    102.30911    716.16376    3.9268276    533.97842   0.15430905 
11000000     -888.862     314.0967   -1.2238654    5811.3819    102.30911    102.30911    716.16376    2.1652647    542.44599   0.15430905 
11390002   -1154.5329    322.22577    3.9533902    5961.7852    102.30911    102.30911    716.16376    2.2036165    533.76344   0.15430905 
Loop time of 18808.6 on 6 procs for 10000000 steps with 6208 atoms

Performance: 459.364 ns/day, 0.052 hours/ns, 531.672 timesteps/s
99.4% CPU use with 6 MPI tasks x no OpenMP threads

MPI task timing breakdown:
Section |  min time  |  avg time  |  max time  |%varavg| %total
---------------------------------------------------------------
Pair    | 9501       | 12748      | 13798      |1317.1 | 67.78
Bond    | 115.6      | 117.62     | 121.04     |  16.1 |  0.63
Neigh   | 1554.1     | 1565.5     | 1575.8     |  19.3 |  8.32
Comm    | 2402.1     | 3409       | 6314.3     |2294.4 | 18.12
Output  | 0.26911    | 0.28465    | 0.29838    |   1.9 |  0.00
Modify  | 744.04     | 838.44     | 1164.2     | 508.5 |  4.46
Other   |            | 129.4      |            |       |  0.69

Nlocal:        1034.67 ave        1062 max        1021 min
Histogram: 1 2 0 2 0 0 0 0 0 1
Nghost:        7740.00 ave        9356 max        5646 min
Histogram: 1 0 1 0 0 1 0 1 0 2
Neighs:        66107.2 ave       73368 max       50360 min
Histogram: 1 0 0 0 0 0 2 0 1 2

Total # of neighbors = 396643
Ave neighs/atom = 63.892236
Ave special neighs/atom = 1.9793814
Neighbor list builds = 359150
Dangerous builds = 0

write_data data$d-$T.out
write_data dataTIA_WT-$T.out
write_data dataTIA_WT-320.out
System init for write_data ...

shell cd ..

clear

next x

jump SELF loopT
variable x loop 5

variable T equal 315+5*$x
variable T equal 315+5*2

units       real
dimension   3
boundary    p p p
atom_style  full

shell cd $d/
shell cd TIA_WT/

read_data $d.config
read_data TIA_WT.config
Reading data file ...
  orthogonal box = (0.0000000 0.0000000 0.0000000) to (300.00000 300.00000 300.00000)
  1 by 2 by 3 MPI processor grid
  reading atoms ...
  97 atoms
  scanning bonds ...
  1 = max bonds/atom
  reading bonds ...
  96 bonds
Finding 1-2 1-3 1-4 neighbors ...
  special bond factors lj:    0        0        0       
  special bond factors coul:  0        0        0       
     2 = max # of 1-2 neighbors
     2 = max # of 1-3 neighbors
     4 = max # of 1-4 neighbors
     6 = max # of special neighbors
  special bonds CPU = 0.000 seconds
  read_data CPU = 0.032 seconds

log log.$T
log log.325
