
bond_style  harmonic
dielectric  80.0

set type 25 charge 0.75
Setting atom values ...
  0 settings made for charge
set type 27 charge -0.75
Setting atom values ...
  0 settings made for charge
set type 28 charge -0.75
Setting atom values ...
  0 settings made for charge
set type 36 charge 0.375
Setting atom values ...
  0 settings made for charge
set type 23 charge 0.75
Setting atom values ...
  0 settings made for charge

set type 5 charge 0.75
Setting atom values ...
  1 settings made for charge
set type 7 charge -0.75
Setting atom values ...
  0 settings made for charge
set type 3  charge 0.75
Setting atom values ...
  0 settings made for charge
set type 16 charge 0.375
Setting atom values ...
  0 settings made for charge
set type 8  charge -0.75
Setting atom values ...
  1 settings made for charge

bond_coeff          1     9.600     3.81
#bond_coeff          2     9.600     5.00

pair_style  hybrid/overlay wf/cut 25.0 coul/debye 0.126 0.0

pair_coeff 30 30 wf/cut 0.004751 6.45565 1 3 19.367
pair_coeff 1 1 wf/cut 0.039564 6.467950871367303 1 2 19.403852614101908
pair_coeff 1 2 wf/cut 0.068017 5.576178403526399 1 2 16.728535210579196
pair_coeff 1 3 wf/cut 0.032686 6.5677835361737795 1 2 19.70335060852134
pair_coeff 1 4 wf/cut 0.035161 6.178228033595178 1 2 18.534684100785533
pair_coeff 1 5 wf/cut 0.171515 6.643964892255349 1 2 19.93189467676605
pair_coeff 1 6 wf/cut 0.044522 5.868502140125925 1 2 17.605506420377775
pair_coeff 1 7 wf/cut 0.073172 6.14145960937047 1 2 18.424378828111408
pair_coeff 1 8 wf/cut 0.077577 6.318176525841784 1 2 18.95452957752535
pair_coeff 1 9 wf/cut 0.229375 6.590037435016079 1 2 19.770112305048237
pair_coeff 1 10 wf/cut 0.022571 6.320571545407576 1 2 18.96171463622273
pair_coeff 1 11 wf/cut 0.025281 6.483443734640188 1 2 19.450331203920562
pair_coeff 1 12 wf/cut 0.120006 6.36518785664648 1 2 19.09556356993944
pair_coeff 1 13 wf/cut 0.294931 6.755728450520449 1 2 20.267185351561345
pair_coeff 1 14 wf/cut 0.215603 6.538208522101147 1 2 19.61462556630344
pair_coeff 1 15 wf/cut 0.050582 5.938940625510648 1 2 17.816821876531947
pair_coeff 1 16 wf/cut 0.203491 6.392507281968151 1 2 19.177521845904455
pair_coeff 1 17 wf/cut 0.116706 6.188018494610175 1 2 18.564055483830522
pair_coeff 1 18 wf/cut 0.059120 6.1344640513130955 1 2 18.403392153939286
pair_coeff 1 19 wf/cut 0.054437 6.094294827619396 1 2 18.282884482858186
pair_coeff 1 20 wf/cut 0.019979 6.496393035701747 1 2 19.48917910710524
pair_coeff 1 21 wf/cut 0.033511 6.472967463905089 1 2 19.418902391715267
pair_coeff 1 22 wf/cut 0.053464 5.579884038976499 1 2 16.7396521169295
pair_coeff 1 23 wf/cut 0.028840 6.572908139010548 1 2 19.718724417031645
pair_coeff 1 24 wf/cut 0.030487 6.183085528083141 1 2 18.549256584249424
pair_coeff 1 25 wf/cut 0.126057 6.646517494086263 1 2 19.93955248225879
pair_coeff 1 26 wf/cut 0.037087 5.873266644604083 1 2 17.61979993381225
pair_coeff 1 27 wf/cut 0.057192 6.145621669676131 1 2 18.43686500902839
pair_coeff 1 28 wf/cut 0.060220 6.322430858089529 1 2 18.967292574268587
pair_coeff 1 29 wf/cut 0.166559 6.592040039094211 1 2 19.776120117282634
pair_coeff 1 30 wf/cut 0.022157 6.322886509244067 1 2 18.9686595277322
pair_coeff 1 31 wf/cut 0.023649 6.486360198534797 1 2 19.45908059560439
pair_coeff 1 32 wf/cut 0.089698 6.368425539955892 1 2 19.105276619867674
pair_coeff 1 33 wf/cut 0.212282 6.7573688868401405 1 2 20.27210666052042
pair_coeff 1 34 wf/cut 0.156918 6.5402914181442595 1 2 19.620874254432778
pair_coeff 1 35 wf/cut 0.041217 5.943583554201671 1 2 17.830750662605013
pair_coeff 1 36 wf/cut 0.148384 6.394666170151445 1 2 19.183998510454334
pair_coeff 1 37 wf/cut 0.087498 6.191219964195186 1 2 18.57365989258556
pair_coeff 1 38 wf/cut 0.047275 6.139108925912469 1 2 18.417326777737408
pair_coeff 1 39 wf/cut 0.043970 6.098946985727069 1 2 18.296840957181207
pair_coeff 1 40 wf/cut 0.019979 6.496393035701747 1 2 19.48917910710524
pair_coeff 2 2 wf/cut 0.096470 4.695110240398406 1 2 14.085330721195216
pair_coeff 2 3 wf/cut 0.061139 5.671338290828199 1 2 17.014014872484598
pair_coeff 2 4 wf/cut 0.063614 5.284424971479424 1 2 15.85327491443827
pair_coeff 2 5 wf/cut 0.199968 5.766386193227936 1 2 17.299158579683805
pair_coeff 2 6 wf/cut 0.072975 4.980134552672144 1 2 14.940403658016432
pair_coeff 2 7 wf/cut 0.101625 5.2592548053112145 1 2 15.777764415933643
pair_coeff 2 8 wf/cut 0.106030 5.436374588857539 1 2 16.30912376657262
pair_coeff 2 9 wf/cut 0.257828 5.7131654456309935 1 2 17.139496336892982
pair_coeff 2 10 wf/cut 0.051024 5.412393397897493 1 2 16.23718019369248
pair_coeff 2 11 wf/cut 0.053734 5.578930397816427 1 2 16.736791193449278
pair_coeff 2 12 wf/cut 0.148459 5.486299347261422 1 2 16.458898041784266
pair_coeff 2 13 wf/cut 0.323384 5.879238002082802 1 2 17.63771400624841
pair_coeff 2 14 wf/cut 0.244056 5.661218822883835 1 2 16.983656468651503
pair_coeff 2 15 wf/cut 0.079035 5.052524512175333 1 2 15.157573536526
pair_coeff 2 16 wf/cut 0.231944 5.515411637199979 1 2 16.54623491159994
pair_coeff 2 17 wf/cut 0.145159 5.3090163197417555 1 2 15.927048959225267
pair_coeff 2 18 wf/cut 0.087573 5.249990542761369 1 2 15.749971628284106
pair_coeff 2 19 wf/cut 0.082890 5.208722790322849 1 2 15.626168370968546
pair_coeff 2 20 wf/cut 0.048432 5.580329252471181 1 2 16.740987757413542
pair_coeff 2 21 wf/cut 0.061964 5.577215175821233 1 2 16.731645527463698
pair_coeff 2 22 wf/cut 0.081917 4.696396560631559 1 2 14.089189681894677
pair_coeff 2 23 wf/cut 0.057293 5.67211261999139 1 2 17.016337859974172
pair_coeff 2 24 wf/cut 0.058940 5.285212528563172 1 2 15.855637585689518
pair_coeff 2 25 wf/cut 0.154510 5.767769508320207 1 2 17.30330852496062
pair_coeff 2 26 wf/cut 0.065540 4.981125987510791 1 2 14.943377962532374
pair_coeff 2 27 wf/cut 0.085645 5.260651874488179 1 2 15.781955623464537
pair_coeff 2 28 wf/cut 0.088673 5.437809343618614 1 2 16.313428030855842
pair_coeff 2 29 wf/cut 0.195012 5.714358676536591 1 2 17.143076029609773
pair_coeff 2 30 wf/cut 0.050610 5.412530359493723 1 2 16.23759107848117
pair_coeff 2 31 wf/cut 0.052102 5.579325356579805 1 2 16.737976069739414
pair_coeff 2 32 wf/cut 0.118151 5.487774115196598 1 2 16.463322345589795
pair_coeff 2 33 wf/cut 0.240735 5.880303283956183 1 2 17.64090985186855
pair_coeff 2 34 wf/cut 0.185371 5.662447134978403 1 2 16.987341404935208
pair_coeff 2 35 wf/cut 0.069670 5.053695239348068 1 2 15.161085718044204
pair_coeff 2 36 wf/cut 0.176837 5.516638738971832 1 2 16.549916216915495
pair_coeff 2 37 wf/cut 0.115951 5.310437234694913 1 2 15.931311704084738
pair_coeff 2 38 wf/cut 0.075728 5.251325825579545 1 2 15.753977476738633
pair_coeff 2 39 wf/cut 0.072423 5.20997288304294 1 2 15.629918649128818
pair_coeff 2 40 wf/cut 0.048432 5.580329252471181 1 2 16.740987757413542
pair_coeff 3 3 wf/cut 0.019117 6.671340524039856 1 2 20.014021572119567
pair_coeff 3 4 wf/cut 0.028283 6.279399881910995 1 2 18.838199645732985
pair_coeff 3 5 wf/cut 0.121938 6.73819193132635 1 2 20.21457579397905
pair_coeff 3 6 wf/cut 0.037644 5.966686347623176 1 2 17.90005904286953
pair_coeff 3 7 wf/cut 0.000493 6.236987380482699 1 2 18.710962141448096
pair_coeff 3 8 wf/cut 0.000526 6.413575163938182 1 2 19.240725491814544
pair_coeff 3 9 wf/cut 0.102701 6.684083406034673 1 2 20.052250218104017
pair_coeff 3 10 wf/cut 0.015693 6.433541011383533 1 2 19.3006230341506
pair_coeff 3 11 wf/cut 0.018403 6.592557574989555 1 2 19.777672724968664
pair_coeff 3 12 wf/cut 0.113128 6.4596938105680355 1 2 19.37908143170411
pair_coeff 3 13 wf/cut 0.104796 6.849685211660051 1 2 20.549055634980153
pair_coeff 3 14 wf/cut 0.115276 6.632280360446061 1 2 19.896841081338184
pair_coeff 3 15 wf/cut 0.043704 6.036179732070119 1 2 18.10853919621036
pair_coeff 3 16 wf/cut 0.087370 6.4866030031823305 1 2 19.45980900954699
pair_coeff 3 17 wf/cut 0.109828 6.2825460057664415 1 2 18.847638017299325
pair_coeff 3 18 wf/cut 0.052242 6.2310615597122725 1 2 18.693184679136817
pair_coeff 3 19 wf/cut 0.047559 6.191153675456269 1 2 18.573461026368804
pair_coeff 3 20 wf/cut 0.013101 6.617996254538358 1 2 19.853988763615074
pair_coeff 3 21 wf/cut 0.026633 6.575236990212751 1 2 19.725710970638254
pair_coeff 3 22 wf/cut 0.046586 5.67591070475063 1 2 17.02773211425189
pair_coeff 3 23 wf/cut 0.016267 6.6786690213492745 1 2 20.036007064047823
pair_coeff 3 24 wf/cut 0.023609 6.28697050091405 1 2 18.860911502742148
pair_coeff 3 25 wf/cut 0.088471 6.7410021187479785 1 2 20.223006356243935
pair_coeff 3 26 wf/cut 0.030209 5.973496417353158 1 2 17.920489252059475
pair_coeff 3 27 wf/cut 0.000375 6.242202340571064 1 2 18.726607021713193
pair_coeff 3 28 wf/cut 0.000395 6.41884518513886 1 2 19.25653555541658
pair_coeff 3 29 wf/cut 0.087295 6.686244113621416 1 2 20.058732340864246
pair_coeff 3 30 wf/cut 0.015279 6.438064853494475 1 2 19.314194560483426
pair_coeff 3 31 wf/cut 0.016771 6.597859600272992 1 2 19.793578800818977
pair_coeff 3 32 wf/cut 0.082820 6.463434808995108 1 2 19.390304426985324
pair_coeff 3 33 wf/cut 0.089077 6.851438991432198 1 2 20.554316974296594
pair_coeff 3 34 wf/cut 0.097985 6.634536462444846 1 2 19.903609387334537
pair_coeff 3 35 wf/cut 0.034339 6.042553594266142 1 2 18.127660782798426
pair_coeff 3 36 wf/cut 0.062880 6.488951472342971 1 2 19.466854417028912
pair_coeff 3 37 wf/cut 0.080620 6.286259565568102 1 2 18.858778696704306
pair_coeff 3 38 wf/cut 0.040397 6.23694969931501 1 2 18.71084909794503
pair_coeff 3 39 wf/cut 0.037092 6.197406382364393 1 2 18.59221914709318
pair_coeff 3 40 wf/cut 0.013101 6.617996254538358 1 2 19.853988763615074
pair_coeff 4 4 wf/cut 0.030758 5.8890615748048605 1 2 17.667184724414582
pair_coeff 4 5 wf/cut 0.167112 6.352015695367313 1 2 19.056047086101938
pair_coeff 4 6 wf/cut 0.040119 5.577947754246859 1 2 16.733843262740578
pair_coeff 4 7 wf/cut 0.068769 5.849866323299111 1 2 17.549598969897332
pair_coeff 4 8 wf/cut 0.073174 6.026541387517959 1 2 18.079624162553877
pair_coeff 4 9 wf/cut 0.224972 6.298063007043266 1 2 18.894189021129797
pair_coeff 4 10 wf/cut 0.018168 6.03696547344559 1 2 18.11089642033677
pair_coeff 4 11 wf/cut 0.020878 6.198088878491606 1 2 18.594266635474817
pair_coeff 4 12 wf/cut 0.115603 6.073287961608412 1 2 18.219863884825237
pair_coeff 4 13 wf/cut 0.290527 6.463775207339586 1 2 19.39132562201876
pair_coeff 4 14 wf/cut 0.211200 6.246251077325644 1 2 18.73875323197693
pair_coeff 4 15 wf/cut 0.046179 5.648007650359314 1 2 16.94402295107794
pair_coeff 4 16 wf/cut 0.199088 6.1005286446452045 1 2 18.301585933935613
pair_coeff 4 17 wf/cut 0.112303 5.896099182190375 1 2 17.688297546571125
pair_coeff 4 18 wf/cut 0.054717 5.84319611761197 1 2 17.52958835283591
pair_coeff 4 19 wf/cut 0.050034 5.803211551983609 1 2 17.40963465595083
pair_coeff 4 20 wf/cut 0.015576 6.214617146494642 1 2 18.643851439483925
pair_coeff 4 21 wf/cut 0.029108 6.184377266229273 1 2 18.55313179868782
pair_coeff 4 22 wf/cut 0.049061 5.288433024843104 1 2 15.865299074529311
pair_coeff 4 23 wf/cut 0.024437 6.285985931141882 1 2 18.857957793425648
pair_coeff 4 24 wf/cut 0.026084 5.895181038887271 1 2 17.685543116661812
pair_coeff 4 25 wf/cut 0.121654 6.3546176961456355 1 2 19.063853088436908
pair_coeff 4 26 wf/cut 0.032684 5.583620888610048 1 2 16.75086266583014
pair_coeff 4 27 wf/cut 0.052789 5.854435916763915 1 2 17.563307750291745
pair_coeff 4 28 wf/cut 0.055817 6.031184910048361 1 2 18.093554730145083
pair_coeff 4 29 wf/cut 0.162155 6.300073473520442 1 2 18.900220420561325
pair_coeff 4 30 wf/cut 0.017754 6.038590687548953 1 2 18.115772062646858
pair_coeff 4 31 wf/cut 0.019246 6.20213243224441 1 2 18.606397296733228
pair_coeff 4 32 wf/cut 0.085295 6.076667470375622 1 2 18.230002411126865
pair_coeff 4 33 wf/cut 0.207879 6.4653998696548625 1 2 19.396199608964587
pair_coeff 4 34 wf/cut 0.152515 6.248347277402027 1 2 18.74504183220608
pair_coeff 4 35 wf/cut 0.036814 5.653400669933968 1 2 16.960202009801904
pair_coeff 4 36 wf/cut 0.143981 6.1027057764377375 1 2 18.308117329313212
pair_coeff 4 37 wf/cut 0.083095 5.899444861363162 1 2 17.698334584089487
pair_coeff 4 38 wf/cut 0.042872 5.848454222246143 1 2 17.545362666738427
pair_coeff 4 39 wf/cut 0.039567 5.808550835350359 1 2 17.425652506051076
pair_coeff 4 40 wf/cut 0.015576 6.214617146494642 1 2 18.643851439483925
pair_coeff 5 5 wf/cut 0.089916 6.839051042416954 1 2 20.51715312725086
pair_coeff 5 6 wf/cut 0.176473 6.049093128275473 1 2 18.14727938482642
pair_coeff 5 7 wf/cut 0.001522 6.329860382208001 1 2 18.989581146624005
pair_coeff 5 8 wf/cut 0.001554 6.507087894628845 1 2 19.521263683886534
pair_coeff 5 9 wf/cut 0.607820 6.786238537205683 1 2 20.358715611617047
pair_coeff 5 10 wf/cut 0.154522 6.477800731622431 1 2 19.433402194867295
pair_coeff 5 11 wf/cut 0.157232 6.644606745714045 1 2 19.933820237142136
pair_coeff 5 12 wf/cut 0.251957 6.5582801074116395 1 2 19.674840322234918
pair_coeff 5 13 wf/cut 0.691657 6.952550947859904 1 2 20.85765284357971
pair_coeff 5 14 wf/cut 0.544942 6.734244851368496 1 2 20.20273455410549
pair_coeff 5 15 wf/cut 0.182533 6.121907195991114 1 2 18.365721587973344
pair_coeff 5 16 wf/cut 0.124237 6.588371399225676 1 2 19.76511419767703
pair_coeff 5 17 wf/cut 0.248657 6.381027696653046 1 2 19.143083089959138
pair_coeff 5 18 wf/cut 0.191071 6.319850876308843 1 2 18.95955262892653
pair_coeff 5 19 wf/cut 0.186388 6.2782756347766915 1 2 18.834826904330075
pair_coeff 5 20 wf/cut 0.151930 6.644914452592528 1 2 19.934743357777585
pair_coeff 5 21 wf/cut 0.165462 6.6442230427261695 1 2 19.93266912817851
pair_coeff 5 22 wf/cut 0.185415 5.7668587075646895 1 2 17.300576122694068
pair_coeff 5 23 wf/cut 0.160791 6.738370816695987 1 2 20.21511245008796
pair_coeff 5 24 wf/cut 0.162438 6.352227758045304 1 2 19.056683274135914
pair_coeff 5 25 wf/cut 0.076528 6.839775073180529 1 2 20.519325219541585
pair_coeff 5 26 wf/cut 0.169038 6.0493803544908396 1 2 18.14814106347252
pair_coeff 5 27 wf/cut 0.001403 6.330338025744615 1 2 18.991014077233842
pair_coeff 5 28 wf/cut 0.001424 6.507609785991295 1 2 19.522829357973883
pair_coeff 5 29 wf/cut 0.516647 6.786966179847217 1 2 20.36089853954165
pair_coeff 5 30 wf/cut 0.154108 6.477855546012645 1 2 19.433566638037934
pair_coeff 5 31 wf/cut 0.155600 6.644688317632491 1 2 19.934064952897472
pair_coeff 5 32 wf/cut 0.221649 6.558922216808411 1 2 19.676766650425233
pair_coeff 5 33 wf/cut 0.587908 6.953270762564632 1 2 20.859812287693895
pair_coeff 5 34 wf/cut 0.463200 6.734965561624807 1 2 20.20489668487442
pair_coeff 5 35 wf/cut 0.173168 6.122239691611766 1 2 18.366719074835295
pair_coeff 5 36 wf/cut 0.103828 6.589083179632521 1 2 19.767249538897563
pair_coeff 5 37 wf/cut 0.219449 6.381655047319296 1 2 19.14496514195789
pair_coeff 5 38 wf/cut 0.179226 6.320242196579514 1 2 18.96072658973854
pair_coeff 5 39 wf/cut 0.175921 6.27864243896636 1 2 18.83592731689908
pair_coeff 5 40 wf/cut 0.151930 6.644914452592528 1 2 19.934743357777585
pair_coeff 6 6 wf/cut 0.049480 5.270073550243385 1 2 15.810220650730155
pair_coeff 6 7 wf/cut 0.078130 5.545103888084069 1 2 16.635311664252207
pair_coeff 6 8 wf/cut 0.082535 5.721983178129665 1 2 17.165949534388993
pair_coeff 6 9 wf/cut 0.234333 5.995374866482686 1 2 17.986124599448058
pair_coeff 6 10 wf/cut 0.027529 5.714672842433839 1 2 17.14401852730152
pair_coeff 6 11 wf/cut 0.030239 5.879183169613761 1 2 17.637549508841282
pair_coeff 6 12 wf/cut 0.124964 5.769878425481944 1 2 17.30963527644583
pair_coeff 6 13 wf/cut 0.299889 6.1612197345718664 1 2 18.4836592037156
pair_coeff 6 14 wf/cut 0.220561 5.943524169558512 1 2 17.830572508675537
pair_coeff 6 15 wf/cut 0.055540 5.341186580911172 1 2 16.023559742733518
pair_coeff 6 16 wf/cut 0.208449 5.797765867232053 1 2 17.393297601696162
pair_coeff 6 17 wf/cut 0.121665 5.592676667454632 1 2 16.778030002363895
pair_coeff 6 18 wf/cut 0.064078 5.537383848868321 1 2 16.612151546604963
pair_coeff 6 19 wf/cut 0.059395 5.496867679432823 1 2 16.490603038298467
pair_coeff 6 20 wf/cut 0.024937 5.887264113119765 1 2 17.661792339359295
pair_coeff 6 21 wf/cut 0.038469 5.872091702440819 1 2 17.616275107322455
pair_coeff 6 22 wf/cut 0.058422 4.983057318967985 1 2 14.949171956903955
pair_coeff 6 23 wf/cut 0.033798 5.970212624670237 1 2 17.91063787401071
pair_coeff 6 24 wf/cut 0.035445 5.581322386503443 1 2 16.743967159510326
pair_coeff 6 25 wf/cut 0.131015 6.051283655448215 1 2 18.153850966344642
pair_coeff 6 26 wf/cut 0.042046 5.273529178305013 1 2 15.82058753491504
pair_coeff 6 27 wf/cut 0.062150 5.548382201124551 1 2 16.645146603373654
pair_coeff 6 28 wf/cut 0.065178 5.725365872076537 1 2 17.17609761622961
pair_coeff 6 29 wf/cut 0.171517 5.997120040197383 1 2 17.991360120592148
pair_coeff 6 30 wf/cut 0.027116 5.716115591130418 1 2 17.148346773391253
pair_coeff 6 31 wf/cut 0.028607 5.881066148485684 1 2 17.643198445457053
pair_coeff 6 32 wf/cut 0.094656 5.77257425641905 1 2 17.317722769257152
pair_coeff 6 33 wf/cut 0.217240 6.16266774871136 1 2 18.48800324613408
pair_coeff 6 34 wf/cut 0.161876 5.945332519051 1 2 17.835997557153
pair_coeff 6 35 wf/cut 0.046175 5.344636755005952 1 2 16.03391026501786
pair_coeff 6 36 wf/cut 0.153342 5.799630893236802 1 2 17.398892679710407
pair_coeff 6 37 wf/cut 0.092457 5.595329366190724 1 2 16.785988098572172
pair_coeff 6 38 wf/cut 0.052233 5.540935423926066 1 2 16.6228062717782
pair_coeff 6 39 wf/cut 0.048928 5.50037559161048 1 2 16.50112677483144
pair_coeff 6 40 wf/cut 0.024937 5.887264113119765 1 2 17.661792339359295
pair_coeff 7 7 wf/cut 0.079096 5.823521721060312 1 2 17.470565163180936
pair_coeff 7 8 wf/cut 0.082359 6.000582237524121 1 2 18.001746712572363
pair_coeff 7 9 wf/cut 0.262983 6.276473791430636 1 2 18.829421374291908
pair_coeff 7 10 wf/cut 0.056178 5.978735433494051 1 2 17.93620630048215
pair_coeff 7 11 wf/cut 0.058888 6.145089275635634 1 2 18.4352678269069
pair_coeff 7 12 wf/cut 0.153614 6.0500403862929435 1 2 18.150121158878832
pair_coeff 7 13 wf/cut 0.328538 6.4424403069543335 1 2 19.327320920863002
pair_coeff 7 14 wf/cut 0.249211 6.224557346027278 1 2 18.673672038081833
pair_coeff 7 15 wf/cut 0.084189 5.617298771179795 1 2 16.851896313539385
pair_coeff 7 16 wf/cut 0.001758 6.078759471752929 1 2 18.236278415258788
pair_coeff 7 17 wf/cut 0.150314 5.872796196825872 1 2 17.618388590477615
pair_coeff 7 18 wf/cut 0.092728 5.81454574012806 1 2 17.44363722038418
pair_coeff 7 19 wf/cut 0.088045 5.773404302618334 1 2 17.320212907855
pair_coeff 7 20 wf/cut 0.053587 6.146988238119009 1 2 18.44096471435703
pair_coeff 7 21 wf/cut 0.067118 6.142810853550669 1 2 18.428432560652006
pair_coeff 7 22 wf/cut 0.087071 5.260822534908925 1 2 15.782467604726776
pair_coeff 7 23 wf/cut 0.062448 6.238009317192061 1 2 18.714027951576185
pair_coeff 7 24 wf/cut 0.064094 5.850906179325341 1 2 17.552718537976023
pair_coeff 7 25 wf/cut 0.159665 6.331479448731908 1 2 18.994438346195725
pair_coeff 7 26 wf/cut 0.070695 5.546505225276659 1 2 16.639515675829976
pair_coeff 7 27 wf/cut 0.067258 5.825264832984326 1 2 17.47579449895298
pair_coeff 7 28 wf/cut 0.069297 6.002427424339147 1 2 18.00728227301744
pair_coeff 7 29 wf/cut 0.200166 6.277866750279897 1 2 18.83360025083969
pair_coeff 7 30 wf/cut 0.055765 5.978921905643417 1 2 17.93676571693025
pair_coeff 7 31 wf/cut 0.057257 6.145621669676131 1 2 18.43686500902839
pair_coeff 7 32 wf/cut 0.123306 6.051811079871612 1 2 18.155433239614837
pair_coeff 7 33 wf/cut 0.245890 6.4436539809330755 1 2 19.330961942799227
pair_coeff 7 34 wf/cut 0.190526 6.225980124267849 1 2 18.677940372803548
pair_coeff 7 35 wf/cut 0.074825 5.6188072088999945 1 2 16.856421626699984
pair_coeff 7 36 wf/cut 0.001350 6.080187764149639 1 2 18.24056329244892
pair_coeff 7 37 wf/cut 0.121106 5.874523045623452 1 2 17.623569136870355
pair_coeff 7 38 wf/cut 0.080883 5.816239431041905 1 2 17.448718293125715
pair_coeff 7 39 wf/cut 0.077578 5.775001596638995 1 2 17.325004789916985
pair_coeff 7 40 wf/cut 0.053587 6.146988238119009 1 2 18.44096471435703
pair_coeff 8 8 wf/cut 0.085622 6.177670315650897 1 2 18.533010946952693
pair_coeff 8 9 wf/cut 0.267388 6.453698205558216 1 2 19.36109461667465
pair_coeff 8 10 wf/cut 0.060583 6.155038804583549 1 2 18.46511641375065
pair_coeff 8 11 wf/cut 0.063293 6.321457293122011 1 2 18.964371879366034
pair_coeff 8 12 wf/cut 0.158019 6.22721384211578 1 2 18.681641526347338
pair_coeff 8 13 wf/cut 0.332943 6.61969178186508 1 2 19.85907534559524
pair_coeff 8 14 wf/cut 0.253616 6.401798946045327 1 2 19.205396838135982
pair_coeff 8 15 wf/cut 0.088594 5.794219764312674 1 2 17.382659292938023
pair_coeff 8 16 wf/cut 0.001791 6.2560007029022255 1 2 18.768002108706675
pair_coeff 8 17 wf/cut 0.154719 6.049988923928926 1 2 18.14996677178678
pair_coeff 8 18 wf/cut 0.097133 5.991524845146615 1 2 17.974574535439846
pair_coeff 8 19 wf/cut 0.092450 5.950364732175825 1 2 17.851094196527477
pair_coeff 8 20 wf/cut 0.057992 6.323325627682127 1 2 18.96997688304638
pair_coeff 8 21 wf/cut 0.071523 6.319407907453407 1 2 18.95822372236022
pair_coeff 8 22 wf/cut 0.091476 5.437918514751647 1 2 16.313755544254942
pair_coeff 8 23 wf/cut 0.066853 6.414637503765215 1 2 19.243912511295648
pair_coeff 8 24 wf/cut 0.068499 6.027610728824833 1 2 18.082832186474498
pair_coeff 8 25 wf/cut 0.164070 6.50867097271995 1 2 19.52601291815985
pair_coeff 8 26 wf/cut 0.075100 5.723271374681476 1 2 17.16981412404443
pair_coeff 8 27 wf/cut 0.095204 6.002225923033709 1 2 18.006677769101127
pair_coeff 8 28 wf/cut 0.072560 6.179413824459994 1 2 18.538241473379983
pair_coeff 8 29 wf/cut 0.204571 6.455074051412765 1 2 19.365222154238296
pair_coeff 8 30 wf/cut 0.060170 6.155372367938502 1 2 18.466117103815506
pair_coeff 8 31 wf/cut 0.061662 6.321931368367982 1 2 18.965794105103946
pair_coeff 8 32 wf/cut 0.127711 6.228922014398231 1 2 18.686766043194694
pair_coeff 8 33 wf/cut 0.250295 6.620903112987423 1 2 19.86270933896227
pair_coeff 8 34 wf/cut 0.194931 6.403201712664134 1 2 19.2096051379924
pair_coeff 8 35 wf/cut 0.079230 5.795615810910755 1 2 17.386847432732267
pair_coeff 8 36 wf/cut 0.001379 6.257425310960982 1 2 18.772275932882945
pair_coeff 8 37 wf/cut 0.125511 6.051653861598323 1 2 18.154961584794968
pair_coeff 8 38 wf/cut 0.085288 5.993104375441103 1 2 17.97931312632331
pair_coeff 8 39 wf/cut 0.081983 5.951847773872721 1 2 17.855543321618164
pair_coeff 8 40 wf/cut 0.057992 6.323325627682127 1 2 18.96997688304638
pair_coeff 9 9 wf/cut 0.419186 6.733634028253079 1 2 20.20090208475924
pair_coeff 9 10 wf/cut 0.212382 6.423549039740656 1 2 19.270647119221966
pair_coeff 9 11 wf/cut 0.215092 6.590387900103195 1 2 19.771163700309586
pair_coeff 9 12 wf/cut 0.309817 6.50524897581083 1 2 19.51574692743249
pair_coeff 9 13 wf/cut 0.484741 6.900050363131952 1 2 20.700151089395856
pair_coeff 9 14 wf/cut 0.405414 6.6815889712242855 1 2 20.044766913672856
pair_coeff 9 15 wf/cut 0.240393 6.068280818635755 1 2 18.204842455907265
pair_coeff 9 16 wf/cut 0.393302 6.535691224609458 1 2 19.607073673828374
pair_coeff 9 17 wf/cut 0.306517 6.327982683666391 1 2 18.98394805099917
pair_coeff 9 18 wf/cut 0.248931 6.266295198960733 1 2 18.798885596882197
pair_coeff 9 19 wf/cut 0.244248 6.2246507773507185 1 2 18.673952332052156
pair_coeff 9 20 wf/cut 0.209790 6.5905505017289965 1 2 19.771651505186988
pair_coeff 9 21 wf/cut 0.223322 6.590180270116687 1 2 19.770540810350063
pair_coeff 9 22 wf/cut 0.243275 5.713450024075365 1 2 17.140350072226095
pair_coeff 9 23 wf/cut 0.218651 6.6841805825849985 1 2 20.052541747754994
pair_coeff 9 24 wf/cut 0.220298 6.298178954636986 1 2 18.894536863910957
pair_coeff 9 25 wf/cut 0.315868 6.786739795335731 1 2 20.360219386007195
pair_coeff 9 26 wf/cut 0.226898 5.99553560612189 1 2 17.98660681836567
pair_coeff 9 27 wf/cut 0.247003 6.276768673597067 1 2 18.8303060207912
pair_coeff 9 28 wf/cut 0.250031 6.454011505099358 1 2 19.362034515298074
pair_coeff 9 29 wf/cut 0.356369 6.734156486173098 1 2 20.202469458519293
pair_coeff 9 30 wf/cut 0.211968 6.4235779793345555 1 2 19.270733938003666
pair_coeff 9 31 wf/cut 0.213460 6.590431338464252 1 2 19.771294015392755
pair_coeff 9 32 wf/cut 0.279509 6.505661229041637 1 2 19.516983687124913
pair_coeff 9 33 wf/cut 0.402093 6.900589936537501 1 2 20.701769809612504
pair_coeff 9 34 wf/cut 0.346729 6.682106650582579 1 2 20.046319951747737
pair_coeff 9 35 wf/cut 0.231028 6.06846960743136 1 2 18.20540882229408
pair_coeff 9 36 wf/cut 0.338195 6.536191669581551 1 2 19.60857500874465
pair_coeff 9 37 wf/cut 0.277309 6.328383771538186 1 2 18.98515131461456
pair_coeff 9 38 wf/cut 0.237086 6.266521616565618 1 2 18.799564849696853
pair_coeff 9 39 wf/cut 0.233781 6.224860927463627 1 2 18.674582782390882
pair_coeff 9 40 wf/cut 0.209790 6.5905505017289965 1 2 19.771651505186988
pair_coeff 10 10 wf/cut 0.005578 6.265999286288815 1 2 18.797997858866445
pair_coeff 10 11 wf/cut 0.008288 6.390932891994093 1 2 19.17279867598228
pair_coeff 10 12 wf/cut 0.103013 6.199729734496916 1 2 18.59918920349075
pair_coeff 10 13 wf/cut 0.277937 6.589117480615403 1 2 19.76735244184621
pair_coeff 10 14 wf/cut 0.198610 6.371783619045257 1 2 19.11535085713577
pair_coeff 10 15 wf/cut 0.033589 5.781664862063682 1 2 17.344994586191046
pair_coeff 10 16 wf/cut 0.186498 6.226104236834126 1 2 18.67831271050238
pair_coeff 10 17 wf/cut 0.099713 6.022605657483588 1 2 18.067816972450764
pair_coeff 10 18 wf/cut 0.042127 5.974331431598945 1 2 17.922994294796837
pair_coeff 10 19 wf/cut 0.037444 5.935671447441882 1 2 17.807014342325644
pair_coeff 10 21 wf/cut 0.016518 6.336783382464571 1 2 19.010350147393712
pair_coeff 10 22 wf/cut 0.036471 5.418375566526451 1 2 16.255126699579353
pair_coeff 10 23 wf/cut 0.011847 6.452549354094189 1 2 19.357648062282568
pair_coeff 10 24 wf/cut 0.013494 6.0532242372044625 1 2 18.15967271161339
pair_coeff 10 25 wf/cut 0.109064 6.480992623201166 1 2 19.442977869603496
pair_coeff 10 26 wf/cut 0.020094 5.727883796640076 1 2 17.18365138992023
pair_coeff 10 27 wf/cut 0.040199 5.986137211233324 1 2 17.958411633699974
pair_coeff 10 28 wf/cut 0.043227 6.162354266488605 1 2 18.487062799465814
pair_coeff 10 29 wf/cut 0.149565 6.425899535640867 1 2 19.277698606922602
pair_coeff 10 30 wf/cut 0.005164 6.279450553510229 1 2 18.838351660530687
pair_coeff 10 31 wf/cut 0.006656 6.414806714205564 1 2 19.24442014261669
pair_coeff 10 32 wf/cut 0.072705 6.20424895331838 1 2 18.61274685995514
pair_coeff 10 33 wf/cut 0.195289 6.590957221363035 1 2 19.772871664089106
pair_coeff 10 34 wf/cut 0.139925 6.374256698313246 1 2 19.12277009493974
pair_coeff 10 35 wf/cut 0.024224 5.79281450588842 1 2 17.37844351766526
pair_coeff 10 36 wf/cut 0.131391 6.228661475252712 1 2 18.685984425758136
pair_coeff 10 37 wf/cut 0.070505 6.027117316392745 1 2 18.081351949178234
pair_coeff 10 38 wf/cut 0.030282 5.983977483837185 1 2 17.951932451511553
pair_coeff 10 39 wf/cut 0.026977 5.94607610198081 1 2 17.83822830594243
pair_coeff 11 11 wf/cut 0.010998 6.53407242179841 1 2 19.60221726539523
pair_coeff 11 12 wf/cut 0.105723 6.366490684329992 1 2 19.099472052989977
pair_coeff 11 13 wf/cut 0.280647 6.755935225417062 1 2 20.267805676251186
pair_coeff 11 14 wf/cut 0.201320 6.538603519887749 1 2 19.615810559663245
pair_coeff 11 15 wf/cut 0.036299 5.946968662780402 1 2 17.840905988341206
pair_coeff 11 16 wf/cut 0.189208 6.392942886970462 1 2 19.178828660911385
pair_coeff 11 17 wf/cut 0.102423 6.189364574070181 1 2 18.56809372221054
pair_coeff 11 18 wf/cut 0.044837 6.1402119935661545 1 2 18.420635980698464
pair_coeff 11 19 wf/cut 0.040154 6.101247830628814 1 2 18.30374349188644
pair_coeff 11 20 wf/cut 0.005696 6.607723261980873 1 2 19.823169785942618
pair_coeff 11 21 wf/cut 0.019228 6.496393035701747 1 2 19.48917910710524
pair_coeff 11 22 wf/cut 0.039181 5.584501642231329 1 2 16.753504926693985
pair_coeff 11 23 wf/cut 0.014557 6.60658239133453 1 2 19.819747174003588
pair_coeff 11 24 wf/cut 0.016204 6.210508609486856 1 2 18.631525828460568
pair_coeff 11 25 wf/cut 0.111774 6.647740379710509 1 2 19.943221139131527
pair_coeff 11 26 wf/cut 0.022804 5.890170182090268 1 2 17.670510546270805
pair_coeff 11 27 wf/cut 0.042909 6.151889183567281 1 2 18.455667550701843
pair_coeff 11 28 wf/cut 0.045937 6.3282208238107795 1 2 18.984662471432337
pair_coeff 11 29 wf/cut 0.152275 6.5927216895129135 1 2 19.77816506853874
pair_coeff 11 30 wf/cut 0.007874 6.397951767513159 1 2 19.193855302539475
pair_coeff 11 31 wf/cut 0.009366 6.548412328573101 1 2 19.645236985719304
pair_coeff 11 32 wf/cut 0.075415 6.370842118401069 1 2 19.112526355203208
pair_coeff 11 33 wf/cut 0.197999 6.75777413374384 1 2 20.27332240123152
pair_coeff 11 34 wf/cut 0.142635 6.541054552668633 1 2 19.623163658005897
pair_coeff 11 35 wf/cut 0.026934 5.956563720651988 1 2 17.869691161955963
pair_coeff 11 36 wf/cut 0.134101 6.395473237725452 1 2 19.186419713176356
pair_coeff 11 37 wf/cut 0.073215 6.193703302501737 1 2 18.58110990750521
pair_coeff 11 38 wf/cut 0.032992 6.148785435376327 1 2 18.446356306128983
pair_coeff 11 39 wf/cut 0.029687 6.110345071454451 1 2 18.331035214363354
pair_coeff 11 40 wf/cut 0.005696 6.607723261980873 1 2 19.823169785942618
pair_coeff 12 12 wf/cut 0.200448 6.277850874229409 1 2 18.833552622688227
pair_coeff 12 13 wf/cut 0.375372 6.671405311072043 1 2 20.01421593321613
pair_coeff 12 14 wf/cut 0.296045 6.4532756440329795 1 2 19.35982693209894
pair_coeff 12 15 wf/cut 0.131024 5.84255485528308 1 2 17.52766456584924
pair_coeff 12 16 wf/cut 0.283933 6.307431677259977 1 2 18.92229503177993
pair_coeff 12 17 wf/cut 0.197148 6.100591694847331 1 2 18.301775084541994
pair_coeff 12 18 wf/cut 0.139562 6.040345112977554 1 2 18.12103533893266
pair_coeff 12 19 wf/cut 0.134879 5.998852825433778 1 2 17.99655847630133
pair_coeff 12 20 wf/cut 0.100421 6.367152767929573 1 2 19.101458303788718
pair_coeff 12 21 wf/cut 0.113953 6.365699666568734 1 2 19.0970989997062
pair_coeff 12 22 wf/cut 0.133906 5.487109605448974 1 2 16.46132881634692
pair_coeff 12 23 wf/cut 0.109282 6.460110665288058 1 2 19.380331995864175
pair_coeff 12 24 wf/cut 0.110929 6.07371622854753 1 2 18.22114868564259
pair_coeff 12 25 wf/cut 0.206499 6.559327404195954 1 2 19.67798221258786
pair_coeff 12 26 wf/cut 0.117529 5.770434344200525 1 2 17.311303032601575
pair_coeff 12 27 wf/cut 0.137634 6.050878049577443 1 2 18.15263414873233
pair_coeff 12 28 wf/cut 0.140662 6.22811906216779 1 2 18.68435718650337
pair_coeff 12 29 wf/cut 0.247000 6.506235094735004 1 2 19.518705284205012
pair_coeff 12 30 wf/cut 0.102599 6.199847722340906 1 2 18.59954316702272
pair_coeff 12 31 wf/cut 0.104091 6.366663725733202 1 2 19.099991177199605
pair_coeff 12 32 wf/cut 0.170140 6.278875223812024 1 2 18.836625671436074
pair_coeff 12 33 wf/cut 0.292724 6.6723319742793255 1 2 20.016995922837978
pair_coeff 12 34 wf/cut 0.237360 6.454265231889239 1 2 19.362795695667717
pair_coeff 12 35 wf/cut 0.121659 5.8431832590102974 1 2 17.529549777030894
pair_coeff 12 36 wf/cut 0.228826 6.308421039847022 1 2 18.925263119541064
pair_coeff 12 37 wf/cut 0.167940 6.10158175427316 1 2 18.30474526281948
pair_coeff 12 38 wf/cut 0.127717 6.041063379946771 1 2 18.123190139840315
pair_coeff 12 39 wf/cut 0.124412 5.999536872422517 1 2 17.998610617267552
pair_coeff 12 40 wf/cut 0.100421 6.367152767929573 1 2 19.101458303788718
pair_coeff 13 13 wf/cut 0.550297 7.066547961746265 1 2 21.199643885238793
pair_coeff 13 14 wf/cut 0.470970 6.84798437757724 1 2 20.54395313273172
pair_coeff 13 15 wf/cut 0.305948 6.234139720557474 1 2 18.702419161672424
pair_coeff 13 16 wf/cut 0.458857 6.702091518082294 1 2 20.10627455424688
pair_coeff 13 17 wf/cut 0.372073 6.494164476750084 1 2 19.48249343025025
pair_coeff 13 18 wf/cut 0.314487 6.432174788842087 1 2 19.29652436652626
pair_coeff 13 19 wf/cut 0.309804 6.390531854157171 1 2 19.171595562471513
pair_coeff 13 20 wf/cut 0.275346 6.756032732095156 1 2 20.268098196285468
pair_coeff 13 21 wf/cut 0.288877 6.755817014102551 1 2 20.267451042307652
pair_coeff 13 22 wf/cut 0.308830 5.879425000161095 1 2 17.638275000483283
pair_coeff 13 23 wf/cut 0.284207 6.8497445004881925 1 2 20.549233501464578
pair_coeff 13 24 wf/cut 0.285853 6.4638463520895115 1 2 19.391539056268535
pair_coeff 13 25 wf/cut 0.381424 6.952910842994874 1 2 20.85873252898462
pair_coeff 13 26 wf/cut 0.292454 6.1613130283141055 1 2 18.483939084942318
pair_coeff 13 27 wf/cut 0.312558 6.442631932062835 1 2 19.327895796188507
pair_coeff 13 28 wf/cut 0.315587 6.619890395721167 1 2 19.8596711871635
pair_coeff 13 29 wf/cut 0.421925 6.900441239237516 1 2 20.701323717712548
pair_coeff 13 30 wf/cut 0.277524 6.589134834507833 1 2 19.7674045035235
pair_coeff 13 31 wf/cut 0.279016 6.755970194682537 1 2 20.267910584047613
pair_coeff 13 32 wf/cut 0.345065 6.671688068448729 1 2 20.015064205346185
pair_coeff 13 33 wf/cut 0.467649 7.066966231238362 1 2 21.200898693715086
pair_coeff 13 34 wf/cut 0.412285 6.848368288265007 1 2 20.54510486479502
pair_coeff 13 35 wf/cut 0.296584 6.23425905911194 1 2 18.70277717733582
pair_coeff 13 36 wf/cut 0.403751 6.702459807412386 1 2 20.10737942223716
pair_coeff 13 37 wf/cut 0.342865 6.494438889291505 1 2 19.483316667874515
pair_coeff 13 38 wf/cut 0.302642 6.4323262444775215 1 2 19.296978733432564
pair_coeff 13 39 wf/cut 0.299337 6.3906653903753785 1 2 19.171996171126136
pair_coeff 13 40 wf/cut 0.275346 6.756032732095156 1 2 20.268098196285468
pair_coeff 14 14 wf/cut 0.391642 6.629549396410893 1 2 19.88864818923268
pair_coeff 14 15 wf/cut 0.226621 6.016400811210637 1 2 18.049202433631912
pair_coeff 14 16 wf/cut 0.379530 6.483674128071082 1 2 19.451022384213246
pair_coeff 14 17 wf/cut 0.292745 6.276026354822916 1 2 18.828079064468746
pair_coeff 14 18 wf/cut 0.235159 6.2144055979415755 1 2 18.643216793824728
pair_coeff 14 19 wf/cut 0.230476 6.172787382997035 1 2 18.518362148991105
pair_coeff 14 20 wf/cut 0.196018 6.538787910119839 1 2 19.616363730359517
pair_coeff 14 21 wf/cut 0.209550 6.538369107168012 1 2 19.615107321504034
pair_coeff 14 22 wf/cut 0.229503 5.661533193978743 1 2 16.98459958193623
pair_coeff 14 23 wf/cut 0.204879 6.632390006238709 1 2 19.89717001871613
pair_coeff 14 24 wf/cut 0.206526 6.246381672050424 1 2 18.73914501615127
pair_coeff 14 25 wf/cut 0.302096 6.734778137463742 1 2 20.204334412391226
pair_coeff 14 26 wf/cut 0.213126 5.94370434405314 1 2 17.831113032159422
pair_coeff 14 27 wf/cut 0.233231 6.2248725061501835 1 2 18.67461751845055
pair_coeff 14 28 wf/cut 0.236259 6.402145618033878 1 2 19.206436854101636
pair_coeff 14 29 wf/cut 0.342598 6.6821466956694 1 2 20.0464400870082
pair_coeff 14 30 wf/cut 0.198196 6.3718164337361864 1 2 19.11544930120856
pair_coeff 14 31 wf/cut 0.199688 6.538652708676239 1 2 19.61595812602872
pair_coeff 14 32 wf/cut 0.265737 6.453725824442914 1 2 19.361177473328745
pair_coeff 14 33 wf/cut 0.388321 6.848555261309869 1 2 20.545665783929607
pair_coeff 14 34 wf/cut 0.332957 6.630097176272377 1 2 19.89029152881713
pair_coeff 14 35 wf/cut 0.217256 6.0166118728379825 1 2 18.049835618513946
pair_coeff 14 36 wf/cut 0.324423 6.484210545760694 1 2 19.45263163728208
pair_coeff 14 37 wf/cut 0.263537 6.276464594313065 1 2 18.829393782939196
pair_coeff 14 38 wf/cut 0.223314 6.2146578822218475 1 2 18.643973646665543
pair_coeff 14 39 wf/cut 0.220009 6.173021960210248 1 2 18.51906588063074
pair_coeff 14 40 wf/cut 0.196018 6.538787910119839 1 2 19.616363730359517
pair_coeff 15 15 wf/cut 0.061600 5.412669704115792 1 2 16.238009112347374
pair_coeff 15 16 wf/cut 0.214509 5.870633388669294 1 2 17.61190016600788
pair_coeff 15 17 wf/cut 0.127724 5.665328065098679 1 2 16.99598419529604
pair_coeff 15 18 wf/cut 0.070138 5.60931576883087 1 2 16.82794730649261
pair_coeff 15 19 wf/cut 0.065455 5.568478936337624 1 2 16.705436809012873
pair_coeff 15 20 wf/cut 0.030997 5.95253426830798 1 2 17.857602804923943
pair_coeff 15 21 wf/cut 0.044529 5.941730116730399 1 2 17.8251903501912
pair_coeff 15 22 wf/cut 0.064482 5.055066526249052 1 2 15.165199578747156
pair_coeff 15 23 wf/cut 0.039858 6.0388189375203165 1 2 18.116456812560948
pair_coeff 15 24 wf/cut 0.041505 5.650569731939204 1 2 16.951709195817614
pair_coeff 15 25 wf/cut 0.137075 6.123955851741878 1 2 18.371867555225634
pair_coeff 15 26 wf/cut 0.048105 5.343933138992498 1 2 16.031799416977496
pair_coeff 15 27 wf/cut 0.068210 5.620115241697351 1 2 16.860345725092053
pair_coeff 15 28 wf/cut 0.071238 5.79714638380999 1 2 17.39143915142997
pair_coeff 15 29 wf/cut 0.177576 6.069943102760143 1 2 18.20982930828043
pair_coeff 15 30 wf/cut 0.033175 5.7826589372196375 1 2 17.347976811658913
pair_coeff 15 31 wf/cut 0.034667 5.948302390882524 1 2 17.84490717264757
pair_coeff 15 32 wf/cut 0.100716 5.845003436795657 1 2 17.53501031038697
pair_coeff 15 33 wf/cut 0.223300 6.235536027214636 1 2 18.706608081643907
pair_coeff 15 34 wf/cut 0.167936 6.018117533790267 1 2 18.054352601370802
pair_coeff 15 35 wf/cut 0.052235 5.415473890209146 1 2 16.246421670627438
pair_coeff 15 36 wf/cut 0.159402 5.872398100194439 1 2 17.617194300583318
pair_coeff 15 37 wf/cut 0.098516 5.667732143982081 1 2 17.003196431946243
pair_coeff 15 38 wf/cut 0.058293 5.612162941341123 1 2 16.83648882402337
pair_coeff 15 39 wf/cut 0.054988 5.571364187563539 1 2 16.714092562690617
pair_coeff 15 40 wf/cut 0.030997 5.95253426830798 1 2 17.857602804923943
pair_coeff 16 16 wf/cut 0.027216 6.337782403912046 1 2 19.01334721173614
pair_coeff 16 17 wf/cut 0.280633 6.130180422228775 1 2 18.390541266686323
pair_coeff 16 18 wf/cut 0.223047 6.068649252074198 1 2 18.205947756222592
pair_coeff 16 19 wf/cut 0.218364 6.027019005823624 1 2 18.081057017470872
pair_coeff 16 20 wf/cut 0.183906 6.393147480752069 1 2 19.179442442256207
pair_coeff 16 21 wf/cut 0.197438 6.392683938124808 1 2 19.178051814374424
pair_coeff 16 22 wf/cut 0.217391 5.515750877499212 1 2 16.547252632497635
pair_coeff 16 23 wf/cut 0.192767 6.486724075272986 1 2 19.46017222581896
pair_coeff 16 24 wf/cut 0.194414 6.100672500483568 1 2 18.302017501450702
pair_coeff 16 25 wf/cut 0.289984 6.588935233441612 1 2 19.766805700324838
pair_coeff 16 26 wf/cut 0.201014 5.79796325726322 1 2 17.39388977178966
pair_coeff 16 27 wf/cut 0.221118 6.0791010484529915 1 2 18.237303145358975
pair_coeff 16 28 wf/cut 0.224147 6.256376087421608 1 2 18.769128262264825
pair_coeff 16 29 wf/cut 0.330485 6.536274979404401 1 2 19.608824938213203
pair_coeff 16 30 wf/cut 0.186084 6.226140636452508 1 2 18.678421909357525
pair_coeff 16 31 wf/cut 0.187576 6.392997387325535 1 2 19.178992161976602
pair_coeff 16 32 wf/cut 0.253625 6.307912958718467 1 2 18.9237388761554
pair_coeff 16 33 wf/cut 0.376209 6.702684222295407 1 2 20.10805266688622
pair_coeff 16 34 wf/cut 0.320845 6.484248553549719 1 2 19.452745660649157
pair_coeff 16 35 wf/cut 0.205144 5.870864049052838 1 2 17.612592147158516
pair_coeff 16 36 wf/cut 0.023134 6.338345846056568 1 2 19.015037538169704
pair_coeff 16 37 wf/cut 0.251425 6.130649043241044 1 2 18.391947129723132
pair_coeff 16 38 wf/cut 0.211202 6.0689241564117395 1 2 18.20677246923522
pair_coeff 16 39 wf/cut 0.207897 6.027275074473145 1 2 18.081825223419436
pair_coeff 16 40 wf/cut 0.183906 6.393147480752069 1 2 19.179442442256207
pair_coeff 17 17 wf/cut 0.193849 5.9233491242788805 1 2 17.770047372836643
pair_coeff 17 18 wf/cut 0.136263 5.8630821184928195 1 2 17.58924635547846
pair_coeff 17 19 wf/cut 0.131580 5.821644218417775 1 2 17.464932655253325
pair_coeff 17 20 wf/cut 0.097122 6.1899864646586105 1 2 18.569959393975832
pair_coeff 17 21 wf/cut 0.110653 6.188546099325202 1 2 18.565638297975607
pair_coeff 17 22 wf/cut 0.130606 5.30983190747035 1 2 15.929495722411051
pair_coeff 17 23 wf/cut 0.105983 6.282921319282791 1 2 18.848763957848373
pair_coeff 17 24 wf/cut 0.107629 5.896489952968157 1 2 17.68946985890447
pair_coeff 17 25 wf/cut 0.203200 6.382089400238762 1 2 19.146268200716285
pair_coeff 17 26 wf/cut 0.114230 5.59320394576633 1 2 16.77961183729899
pair_coeff 17 27 wf/cut 0.134334 5.873649240456693 1 2 17.62094772137008
pair_coeff 17 28 wf/cut 0.137363 6.050910374214647 1 2 18.152731122643942
pair_coeff 17 29 wf/cut 0.243701 6.328963417719822 1 2 18.986890253159466
pair_coeff 17 30 wf/cut 0.099300 6.022666584916778 1 2 18.067999754750335
pair_coeff 17 31 wf/cut 0.100792 6.189544117007458 1 2 18.568632351022373
pair_coeff 17 32 wf/cut 0.166841 6.101625831837799 1 2 18.304877495513395
pair_coeff 17 33 wf/cut 0.289424 6.495083547619462 1 2 19.485250642858386
pair_coeff 17 34 wf/cut 0.234061 6.277022750655092 1 2 18.831068251965277
pair_coeff 17 35 wf/cut 0.118359 5.665971807159278 1 2 16.997915421477835
pair_coeff 17 36 wf/cut 0.225527 6.131165252735328 1 2 18.393495758205983
pair_coeff 17 37 wf/cut 0.164641 5.924348407080925 1 2 17.773045221242775
pair_coeff 17 38 wf/cut 0.124417 5.863848431499796 1 2 17.591545294499387
pair_coeff 17 39 wf/cut 0.121113 5.822344488616284 1 2 17.46703346584885
pair_coeff 17 40 wf/cut 0.097122 6.1899864646586105 1 2 18.569959393975832
pair_coeff 18 18 wf/cut 0.078677 5.806155150598376 1 2 17.41846545179513
pair_coeff 18 19 wf/cut 0.073994 5.765149033334852 1 2 17.29544710000456
pair_coeff 18 20 wf/cut 0.039536 6.143860896897243 1 2 18.431582690691727
pair_coeff 18 21 wf/cut 0.053067 6.136530836242518 1 2 18.409592508727556
pair_coeff 18 22 wf/cut 0.073020 5.2521394224496145 1 2 15.756418267348844
pair_coeff 18 23 wf/cut 0.048396 6.232722071931244 1 2 18.698166215793734
pair_coeff 18 24 wf/cut 0.050043 5.845049472828402 1 2 17.535148418485207
pair_coeff 18 25 wf/cut 0.145613 6.3217567788528175 1 2 18.965270336558454
pair_coeff 18 26 wf/cut 0.056644 5.539473279208256 1 2 16.618419837624767
pair_coeff 18 27 wf/cut 0.076748 5.816985496228361 1 2 17.450956488685083
pair_coeff 18 28 wf/cut 0.079776 5.993977654615634 1 2 17.9819329638469
pair_coeff 18 29 wf/cut 0.186115 6.267859616819192 1 2 18.803578850457576
pair_coeff 18 30 wf/cut 0.041714 5.974983307333975 1 2 17.924949922001925
pair_coeff 18 31 wf/cut 0.043205 6.1411099770057245 1 2 18.42332993101717
pair_coeff 18 32 wf/cut 0.109254 6.042493928204347 1 2 18.12748178461304
pair_coeff 18 33 wf/cut 0.231838 6.433519247230287 1 2 19.300557741690863
pair_coeff 18 34 wf/cut 0.176474 6.216033392034327 1 2 18.648100176102982
pair_coeff 18 35 wf/cut 0.060773 5.611389850569513 1 2 16.834169551708538
pair_coeff 18 36 wf/cut 0.167940 6.070294170144763 1 2 18.21088251043429
pair_coeff 18 37 wf/cut 0.107055 5.865217375098184 1 2 17.595652125294553
pair_coeff 18 38 wf/cut 0.066831 5.808437279092397 1 2 17.425311837277192
pair_coeff 18 39 wf/cut 0.063527 5.767428643819603 1 2 17.302285931458808
pair_coeff 18 40 wf/cut 0.039536 6.143860896897243 1 2 18.431582690691727
pair_coeff 19 19 wf/cut 0.069311 5.724362787504792 1 2 17.173088362514378
pair_coeff 19 20 wf/cut 0.034853 6.10586575299424 1 2 18.31759725898272
pair_coeff 19 21 wf/cut 0.048384 6.0967512192398505 1 2 18.290253657719553
pair_coeff 19 22 wf/cut 0.068337 5.211108138159037 1 2 15.633324414477112
pair_coeff 19 23 wf/cut 0.043714 6.1934329156331 1 2 18.5802987468993
pair_coeff 19 24 wf/cut 0.045360 5.805442925019495 1 2 17.416328775058485
pair_coeff 19 25 wf/cut 0.140930 6.280274061428144 1 2 18.84082218428443
pair_coeff 19 26 wf/cut 0.051961 5.499319146540279 1 2 16.497957439620837
pair_coeff 19 27 wf/cut 0.072065 5.776024303801226 1 2 17.328072911403677
pair_coeff 19 28 wf/cut 0.075093 5.953096206763187 1 2 17.85928862028956
pair_coeff 19 29 wf/cut 0.181432 6.226290621468162 1 2 18.678871864404485
pair_coeff 19 30 wf/cut 0.037031 5.936496588820257 1 2 17.80948976646077
pair_coeff 19 31 wf/cut 0.038522 6.10236911417194 1 2 18.30710734251582
pair_coeff 19 32 wf/cut 0.104571 6.001202451726246 1 2 18.003607355178737
pair_coeff 19 33 wf/cut 0.227155 6.391918936768799 1 2 19.175756810306396
pair_coeff 19 34 wf/cut 0.171791 6.174477574070478 1 2 18.52343272221143
pair_coeff 19 35 wf/cut 0.056090 5.571011278043507 1 2 16.71303383413052
pair_coeff 19 36 wf/cut 0.163258 6.028753613252821 1 2 18.086260839758463
pair_coeff 19 37 wf/cut 0.102372 5.823949131867462 1 2 17.471847395602385
pair_coeff 19 38 wf/cut 0.062148 5.767856883865312 1 2 17.303570651595933
pair_coeff 19 39 wf/cut 0.058844 5.726983480603789 1 2 17.18095044181137
pair_coeff 19 40 wf/cut 0.034853 6.10586575299424 1 2 18.31759725898272
pair_coeff 20 21 wf/cut 0.013926 6.5199210046589675 1 2 19.5597630139769
pair_coeff 20 22 wf/cut 0.033879 5.587459907599181 1 2 16.76237972279754
pair_coeff 20 23 wf/cut 0.009256 6.649574443493311 1 2 19.948723330479933
pair_coeff 20 24 wf/cut 0.010902 6.242374503621665 1 2 18.727123510864995
pair_coeff 20 25 wf/cut 0.106472 6.648355967009086 1 2 19.945067901027258
pair_coeff 20 26 wf/cut 0.017503 5.903567074401621 1 2 17.71070122320486
pair_coeff 20 27 wf/cut 0.037607 6.155943831058615 1 2 18.467831493175847
pair_coeff 20 28 wf/cut 0.040635 6.331503643570952 1 2 18.994510930712856
pair_coeff 20 29 wf/cut 0.146974 6.593018960515583 1 2 19.77905688154675
pair_coeff 20 32 wf/cut 0.070113 6.372029116976672 1 2 19.116087350930016
pair_coeff 20 33 wf/cut 0.192697 6.757970683221281 1 2 20.273912049663842
pair_coeff 20 34 wf/cut 0.137333 6.5414250271565235 1 2 19.62427508146957
pair_coeff 20 35 wf/cut 0.021632 5.967018638311549 1 2 17.901055914934645
pair_coeff 20 36 wf/cut 0.128800 6.395882535691026 1 2 19.187647607073078
pair_coeff 20 37 wf/cut 0.067914 6.194931490620908 1 2 18.584794471862722
pair_coeff 20 38 wf/cut 0.027690 6.155796177211015 1 2 18.467388531633045
pair_coeff 20 39 wf/cut 0.024386 6.119051758363574 1 2 18.357155275090722
pair_coeff 21 21 wf/cut 0.027458 6.480069420606985 1 2 19.440208261820956
pair_coeff 21 22 wf/cut 0.047411 5.581642130693901 1 2 16.7449263920817
pair_coeff 21 23 wf/cut 0.022787 6.583002517343036 1 2 19.74900755202911
pair_coeff 21 24 wf/cut 0.024433 6.191552500203247 1 2 18.574657500609742
pair_coeff 21 25 wf/cut 0.120004 6.646999738911693 1 2 19.94099921673508
pair_coeff 21 26 wf/cut 0.031034 5.878598106878971 1 2 17.63579432063691
pair_coeff 21 27 wf/cut 0.051138 6.1478586796466335 1 2 18.443576038939902
pair_coeff 21 28 wf/cut 0.054167 6.324516380690015 1 2 18.973549142070045
pair_coeff 21 29 wf/cut 0.160505 6.592313711480712 1 2 19.776941134442136
pair_coeff 21 30 wf/cut 0.016104 6.340969704607503 1 2 19.02290911382251
pair_coeff 21 31 wf/cut 0.017596 6.5013402123206046 1 2 19.504020636961812
pair_coeff 21 32 wf/cut 0.083645 6.369348945541728 1 2 19.108046836625185
pair_coeff 21 33 wf/cut 0.206229 6.757540572332879 1 2 20.27262171699864
pair_coeff 21 34 wf/cut 0.150865 6.540596793679068 1 2 19.621790381037204
pair_coeff 21 35 wf/cut 0.035164 5.947844531230358 1 2 17.843533593691074
pair_coeff 21 36 wf/cut 0.142331 6.39500222582037 1 2 19.18500667746111
pair_coeff 21 37 wf/cut 0.081445 6.192166186380409 1 2 18.57649855914123
pair_coeff 21 38 wf/cut 0.041222 6.142414836822247 1 2 18.42724451046674
pair_coeff 21 39 wf/cut 0.037917 6.102763659737872 1 2 18.308290979213616
pair_coeff 21 40 wf/cut 0.013926 6.5199210046589675 1 2 19.5597630139769
pair_coeff 22 22 wf/cut 0.067364 4.698227190160832 1 2 14.094681570482496
pair_coeff 22 23 wf/cut 0.042740 5.6772849911904 1 2 17.0318549735712
pair_coeff 22 24 wf/cut 0.044387 5.289807269665101 1 2 15.869421808995302
pair_coeff 22 25 wf/cut 0.139957 5.768554114508845 1 2 17.305662343526535
pair_coeff 22 26 wf/cut 0.050987 4.984686027270456 1 2 14.954058081811368
pair_coeff 22 27 wf/cut 0.071091 5.262912382415455 1 2 15.788737147246366
pair_coeff 22 28 wf/cut 0.074120 5.439975772862831 1 2 16.319927318588494
pair_coeff 22 29 wf/cut 0.180458 5.714850862757114 1 2 17.144552588271342
pair_coeff 22 30 wf/cut 0.036057 5.418902704026212 1 2 16.256708112078634
pair_coeff 22 31 wf/cut 0.037549 5.585489758070483 1 2 16.756469274211447
pair_coeff 22 32 wf/cut 0.103598 5.489037080971375 1 2 16.467111242914125
pair_coeff 22 33 wf/cut 0.226182 5.8806376350894025 1 2 17.641912905268207
pair_coeff 22 34 wf/cut 0.170818 5.662987686021554 1 2 16.988963058064662
pair_coeff 22 35 wf/cut 0.055117 5.056931123036382 1 2 15.170793369109145
pair_coeff 22 36 wf/cut 0.162284 5.517215784587296 1 2 16.551647353761886
pair_coeff 22 37 wf/cut 0.101398 5.311696859115723 1 2 15.935090577347168
pair_coeff 22 38 wf/cut 0.061175 5.254183030641423 1 2 15.762549091924269
pair_coeff 22 39 wf/cut 0.057870 5.213062357159386 1 2 15.639187071478158
pair_coeff 22 40 wf/cut 0.033879 5.587459907599181 1 2 16.76237972279754
pair_coeff 23 23 wf/cut 0.013420 6.688853536606121 1 2 20.066560609818364
pair_coeff 23 24 wf/cut 0.019763 6.29527868599085 1 2 18.885836057972547
pair_coeff 23 25 wf/cut 0.085206 6.741392723436803 1 2 20.22417817031041
pair_coeff 23 26 wf/cut 0.026364 5.978305270632397 1 2 17.93491581189719
pair_coeff 23 27 wf/cut 0.000342 6.244253298502354 1 2 18.732759895507062
pair_coeff 23 28 wf/cut 0.000366 6.4204818546224995 1 2 19.261445563867497
pair_coeff 23 29 wf/cut 0.071890 6.686432938070228 1 2 20.059298814210685
pair_coeff 23 30 wf/cut 0.011434 6.460111302128625 1 2 19.380333906385875
pair_coeff 23 31 wf/cut 0.012925 6.617996254538358 1 2 19.853988763615074
pair_coeff 23 32 wf/cut 0.078974 6.4641118645001 1 2 19.3923355935003
pair_coeff 23 33 wf/cut 0.073358 6.85155566549562 1 2 20.55466699648686
pair_coeff 23 34 wf/cut 0.080693 6.634779187210656 1 2 19.90433756163197
pair_coeff 23 35 wf/cut 0.030493 6.046847416569171 1 2 18.14054224970751
pair_coeff 23 36 wf/cut 0.061166 6.489185414364156 1 2 19.467556243092467
pair_coeff 23 37 wf/cut 0.076775 6.2869559403051 1 2 18.860867820915303
pair_coeff 23 38 wf/cut 0.036551 6.240136548485556 1 2 18.72040964545667
pair_coeff 23 39 wf/cut 0.033247 6.2011686854634664 1 2 18.6035060563904
pair_coeff 23 40 wf/cut 0.009256 6.649574443493311 1 2 19.948723330479933
pair_coeff 24 24 wf/cut 0.021409 5.902825373061459 1 2 17.708476119184375
pair_coeff 24 25 wf/cut 0.116980 6.355020618222843 1 2 19.065061854668528
pair_coeff 24 26 wf/cut 0.028010 5.588184701124206 1 2 16.764554103372618
pair_coeff 24 27 wf/cut 0.048114 5.856453272809193 1 2 17.56935981842758
pair_coeff 24 28 wf/cut 0.051143 6.03282984385001 1 2 18.09848953155003
pair_coeff 24 29 wf/cut 0.157481 6.300272873273843 1 2 18.90081861982153
pair_coeff 24 30 wf/cut 0.013080 6.05885560137348 1 2 18.17656680412044
pair_coeff 24 31 wf/cut 0.014572 6.219293562690735 1 2 18.657880688072204
pair_coeff 24 32 wf/cut 0.080621 6.077365593674358 1 2 18.232096781023074
pair_coeff 24 33 wf/cut 0.203205 6.465539023765016 1 2 19.396617071295047
pair_coeff 24 34 wf/cut 0.147841 6.248599086448351 1 2 18.745797259345053
pair_coeff 24 35 wf/cut 0.032140 5.6574738585901345 1 2 16.972421575770404
pair_coeff 24 36 wf/cut 0.139307 6.102951668547555 1 2 18.308855005642666
pair_coeff 24 37 wf/cut 0.078421 5.900160965208208 1 2 17.700482895624624
pair_coeff 24 38 wf/cut 0.038198 5.85153222065546 1 2 17.55459666196638
pair_coeff 24 39 wf/cut 0.034893 5.812153931855011 1 2 17.436461795565034
pair_coeff 24 40 wf/cut 0.010902 6.242374503621665 1 2 18.727123510864995
pair_coeff 25 25 wf/cut 0.062978 6.840818860381698 1 2 20.522456581145093
pair_coeff 25 26 wf/cut 0.123581 6.051811079871612 1 2 18.155433239614837
pair_coeff 25 27 wf/cut 0.001064 6.332285213812248 1 2 18.996855641436742
pair_coeff 25 28 wf/cut 0.001085 6.509542326637676 1 2 19.528626979913028
pair_coeff 25 29 wf/cut 0.425474 6.7877218996841355 1 2 20.363165699052406
pair_coeff 25 30 wf/cut 0.108651 6.481102402445426 1 2 19.44330720733628
pair_coeff 25 31 wf/cut 0.110142 6.647901648052044 1 2 19.94370494415613
pair_coeff 25 32 wf/cut 0.176191 6.560327886240045 1 2 19.680983658720134
pair_coeff 25 33 wf/cut 0.484160 6.953839371357665 1 2 20.861518114072993
pair_coeff 25 34 wf/cut 0.381459 6.735769622233203 1 2 20.20730886669961
pair_coeff 25 35 wf/cut 0.127710 6.1245540687340725 1 2 18.37366220620222
pair_coeff 25 36 wf/cut 0.086889 6.589926019306955 1 2 19.769778057920867
pair_coeff 25 37 wf/cut 0.173991 6.38305646617526 1 2 19.14916939852578
pair_coeff 25 38 wf/cut 0.133768 6.322442926130092 1 2 18.967328778390275
pair_coeff 25 39 wf/cut 0.130463 6.280926022691235 1 2 18.842778068073706
pair_coeff 25 40 wf/cut 0.106472 6.648355967009086 1 2 19.945067901027258
pair_coeff 26 26 wf/cut 0.034611 5.278051554722805 1 2 15.834154664168416
pair_coeff 26 27 wf/cut 0.054715 5.550632394717641 1 2 16.651897184152922
pair_coeff 26 28 wf/cut 0.057743 5.727313013729271 1 2 17.18193904118781
pair_coeff 26 29 wf/cut 0.164082 5.997401234701861 1 2 17.99220370410558
pair_coeff 26 30 wf/cut 0.019681 5.729200436106479 1 2 17.187601308319437
pair_coeff 26 31 wf/cut 0.021172 5.893502125092778 1 2 17.680506375278334
pair_coeff 26 32 wf/cut 0.087222 5.77355467816977 1 2 17.32066403450931
pair_coeff 26 33 wf/cut 0.209805 6.162846524069043 1 2 18.48853957220713
pair_coeff 26 34 wf/cut 0.154442 5.945670315140756 1 2 17.837010945422268
pair_coeff 26 35 wf/cut 0.038740 5.3486854588231765 1 2 16.04605637646953
pair_coeff 26 36 wf/cut 0.145908 5.799973083941243 1 2 17.39991925182373
pair_coeff 26 37 wf/cut 0.085022 5.596251927245512 1 2 16.788755781736537
pair_coeff 26 38 wf/cut 0.044798 5.544164768287125 1 2 16.632494304861375
pair_coeff 26 39 wf/cut 0.041494 5.504054682438701 1 2 16.512164047316105
pair_coeff 26 40 wf/cut 0.017503 5.903567074401621 1 2 17.71070122320486
pair_coeff 27 27 wf/cut 0.055422 5.8277356350076115 1 2 17.483206905022833
pair_coeff 27 28 wf/cut 0.057461 6.0048083393750415 1 2 18.014425018125124
pair_coeff 27 29 wf/cut 0.184186 6.278368151196274 1 2 18.83510445358882
pair_coeff 27 30 wf/cut 0.039785 5.986861716352022 1 2 17.960585149056065
pair_coeff 27 31 wf/cut 0.041277 6.152881477214971 1 2 18.458644431644913
pair_coeff 27 32 wf/cut 0.107326 6.053140955180234 1 2 18.159422865540705
pair_coeff 27 33 wf/cut 0.229910 6.444000765960297 1 2 19.33200229788089
pair_coeff 27 34 wf/cut 0.174546 6.226529663564308 1 2 18.679588990692924
pair_coeff 27 35 wf/cut 0.058845 5.622457081906772 1 2 16.867371245720314
pair_coeff 27 36 wf/cut 0.001228 6.080799532766481 1 2 18.242398598299445
pair_coeff 27 37 wf/cut 0.105126 5.875867449320084 1 2 17.627602347960252
pair_coeff 27 38 wf/cut 0.064903 5.819413545043322 1 2 17.458240635129968
pair_coeff 27 39 wf/cut 0.061598 5.778457730344957 1 2 17.335373191034872
pair_coeff 27 40 wf/cut 0.037607 6.155943831058615 1 2 18.467831493175847
pair_coeff 28 28 wf/cut 0.059908 6.1818125994432265 1 2 18.54543779832968
pair_coeff 28 29 wf/cut 0.187215 6.4556028384801145 1 2 19.366808515440344
pair_coeff 28 30 wf/cut 0.042814 6.162677260323304 1 2 18.488031780969912
pair_coeff 28 31 wf/cut 0.044305 6.329122536684595 1 2 18.987367610053788
pair_coeff 28 32 wf/cut 0.110354 6.230341958421634 1 2 18.691025875264902
pair_coeff 28 33 wf/cut 0.232938 6.621259842822526 1 2 19.863779528467578
pair_coeff 28 34 wf/cut 0.177574 6.403800703379438 1 2 19.211402110138312
pair_coeff 28 35 wf/cut 0.061873 5.7993639894571976 1 2 17.39809196837159
pair_coeff 28 36 wf/cut 0.001252 6.258048801889918 1 2 18.774146405669754
pair_coeff 28 37 wf/cut 0.108154 6.053088642675554 1 2 18.159265928026663
pair_coeff 28 38 wf/cut 0.067931 5.9963870692049515 1 2 17.989161207614856
pair_coeff 28 39 wf/cut 0.064626 5.955407688864699 1 2 17.866223066594095
pair_coeff 28 40 wf/cut 0.040635 6.331503643570952 1 2 18.994510930712856
pair_coeff 29 29 wf/cut 0.293553 6.734901221669089 1 2 20.204703665007266
pair_coeff 29 30 wf/cut 0.149152 6.425928662140226 1 2 19.277785986420678
pair_coeff 29 31 wf/cut 0.150644 6.592808608254519 1 2 19.77842582476356
pair_coeff 29 32 wf/cut 0.216693 6.5069139355650485 1 2 19.520741806695145
pair_coeff 29 33 wf/cut 0.339277 6.901174934210456 1 2 20.703524802631367
pair_coeff 29 34 wf/cut 0.283913 6.682893550119813 1 2 20.048680650359437
pair_coeff 29 35 wf/cut 0.168212 6.070294170144763 1 2 18.21088251043429
pair_coeff 29 36 wf/cut 0.275379 6.53700493974828 1 2 19.61101481924484
pair_coeff 29 37 wf/cut 0.214493 6.329613164394258 1 2 18.988839493182773
pair_coeff 29 38 wf/cut 0.174270 6.268290266697097 1 2 18.80487080009129
pair_coeff 29 39 wf/cut 0.170965 6.226677571408917 1 2 18.68003271422675
pair_coeff 29 40 wf/cut 0.146974 6.593018960515583 1 2 19.77905688154675
pair_coeff 30 31 wf/cut 0.006243 6.436867325811939 1 2 19.310601977435816
pair_coeff 30 32 wf/cut 0.072292 6.2043654791136875 1 2 18.613096437341063
pair_coeff 30 33 wf/cut 0.194875 6.590992227279316 1 2 19.77297668183795
pair_coeff 30 34 wf/cut 0.139512 6.374322689731052 1 2 19.122968069193156
pair_coeff 30 35 wf/cut 0.023810 5.794680761693587 1 2 17.38404228508076
pair_coeff 30 36 wf/cut 0.130978 6.228734363673756 1 2 18.68620309102127
pair_coeff 30 37 wf/cut 0.070092 6.027237821338098 1 2 18.081713464014296
pair_coeff 30 38 wf/cut 0.029868 5.985230649978958 1 2 17.955691949936874
pair_coeff 30 39 wf/cut 0.026564 5.947631895281645 1 2 17.842895685844933
pair_coeff 31 31 wf/cut 0.007734 6.567831037515117 1 2 19.703493112545353
pair_coeff 31 32 wf/cut 0.073783 6.371180012524027 1 2 19.11354003757208
pair_coeff 31 33 wf/cut 0.196367 6.757844212311977 1 2 20.273532636935933
pair_coeff 31 34 wf/cut 0.141003 6.541152469250684 1 2 19.623457407752053
pair_coeff 31 35 wf/cut 0.025302 5.958948966149641 1 2 17.87684689844892
pair_coeff 31 36 wf/cut 0.132469 6.395617784448214 1 2 19.18685335334464
pair_coeff 31 37 wf/cut 0.071583 6.194052355515639 1 2 18.58215706654692
pair_coeff 31 38 wf/cut 0.031360 6.150442231391871 1 2 18.451326694175613
pair_coeff 31 39 wf/cut 0.028055 6.1123674095484715 1 2 18.337102228645414
pair_coeff 32 32 wf/cut 0.139832 6.280338147956703 1 2 18.841014443870108
pair_coeff 32 33 wf/cut 0.262416 6.672807379130834 1 2 20.018422137392502
pair_coeff 32 34 wf/cut 0.207052 6.454996866244807 1 2 19.364990598734423
pair_coeff 32 35 wf/cut 0.091351 5.846082838683163 1 2 17.53824851604949
pair_coeff 32 36 wf/cut 0.198518 6.309181376440496 1 2 18.92754412932149
pair_coeff 32 37 wf/cut 0.137633 6.103047888395006 1 2 18.30914366518502
pair_coeff 32 38 wf/cut 0.097409 6.043739153604026 1 2 18.131217460812078
pair_coeff 32 39 wf/cut 0.094104 6.002359484884067 1 2 18.007078454652202
pair_coeff 32 40 wf/cut 0.070113 6.372029116976672 1 2 19.116087350930016
pair_coeff 33 33 wf/cut 0.385000 7.067563273437359 1 2 21.202689820312077
pair_coeff 33 34 wf/cut 0.329636 6.849136659067028 1 2 20.547409977201085
pair_coeff 33 35 wf/cut 0.213935 6.235761878631987 1 2 18.70728563589596
pair_coeff 33 36 wf/cut 0.321102 6.703247958074066 1 2 20.109743874222197
pair_coeff 33 37 wf/cut 0.260216 6.49554680247315 1 2 19.48664040741945
pair_coeff 33 38 wf/cut 0.219993 6.433800819712532 1 2 19.3014024591376
pair_coeff 33 39 wf/cut 0.216688 6.3921696304391835 1 2 19.17650889131755
pair_coeff 33 40 wf/cut 0.192697 6.757970683221281 1 2 20.273912049663842
pair_coeff 34 34 wf/cut 0.274272 6.630885251270346 1 2 19.892655753811038
pair_coeff 34 35 wf/cut 0.158571 6.018506537122348 1 2 18.055519611367043
pair_coeff 34 36 wf/cut 0.265738 6.485029527646095 1 2 19.455088582938284
pair_coeff 34 37 wf/cut 0.204852 6.27772691468288 1 2 18.83318074404864
pair_coeff 34 38 wf/cut 0.164629 6.216488307385695 1 2 18.649464922157083
pair_coeff 34 39 wf/cut 0.161324 6.17490549231641 1 2 18.52471647694923
pair_coeff 34 40 wf/cut 0.137333 6.5414250271565235 1 2 19.62427508146957
pair_coeff 35 35 wf/cut 0.042870 5.4194558891562785 1 2 16.258367667468836
pair_coeff 35 36 wf/cut 0.150037 5.8728226163551005 1 2 17.6184678490653
pair_coeff 35 37 wf/cut 0.089151 5.6688305293155095 1 2 17.006491587946527
pair_coeff 35 38 wf/cut 0.048928 5.615420402551611 1 2 16.846261207654834
pair_coeff 35 39 wf/cut 0.045623 5.575027083025114 1 2 16.725081249075345
pair_coeff 35 40 wf/cut 0.021632 5.967018638311549 1 2 17.901055914934645
pair_coeff 36 36 wf/cut 0.019052 6.339149093005715 1 2 19.017447279017144
pair_coeff 36 37 wf/cut 0.196319 6.131909094415353 1 2 18.39572728324606
pair_coeff 36 38 wf/cut 0.156095 6.07081046198845 1 2 18.21243138596535
pair_coeff 36 39 wf/cut 0.152791 6.029219810679759 1 2 18.087659432039278
pair_coeff 36 40 wf/cut 0.128800 6.395882535691026 1 2 19.187647607073078
pair_coeff 37 37 wf/cut 0.135433 5.925773208988131 1 2 17.777319626964392
pair_coeff 37 38 wf/cut 0.095209 5.866481553533799 1 2 17.599444660601396
pair_coeff 37 39 wf/cut 0.091905 5.82512551794993 1 2 17.47537655384979
pair_coeff 37 40 wf/cut 0.067914 6.194931490620908 1 2 18.584794471862722
pair_coeff 38 38 wf/cut 0.054986 5.811826808320624 1 2 17.43548042496187
pair_coeff 38 39 wf/cut 0.051681 5.771184604473262 1 2 17.313553813419787
pair_coeff 38 40 wf/cut 0.027690 6.155796177211015 1 2 18.467388531633045
pair_coeff 39 39 wf/cut 0.048377 5.730699270006254 1 2 17.192097810018762
pair_coeff 39 40 wf/cut 0.024386 6.119051758363574 1 2 18.357155275090722
pair_coeff 40 40 wf/cut 0.000395 6.921680089176746 1 11 20.76504026753024
pair_coeff 20 40 wf/cut 0.000395 6.921680089176746 1 11 20.76504026753024
pair_coeff 20 20 wf/cut 0.000395 6.921680089176746 1 11 20.76504026753024
pair_coeff 10 20 wf/cut 0.002986 6.718011650959061 1 4 20.154034952877183
pair_coeff 10 40 wf/cut 0.002986 6.718011650959061 1 4 20.154034952877183
pair_coeff 20 30 wf/cut 0.002573 6.745752996427961 1 4 20.237258989283884
pair_coeff 20 31 wf/cut 0.004064 6.883184689300606 1 4 20.649554067901818
pair_coeff 30 40 wf/cut 0.002573 6.745752996427961 1 4 20.237258989283884
pair_coeff 31 40 wf/cut 0.004064 6.883184689300606 1 4 20.649554067901818
pair_coeff 3 3 coul/debye 35.
pair_coeff 3 5 coul/debye 35.
pair_coeff 3 7 coul/debye 35.
pair_coeff 3 8 coul/debye 35.
pair_coeff 3 16 coul/debye 35.
pair_coeff 3 23 coul/debye 35.
pair_coeff 3 25 coul/debye 35.
pair_coeff 3 36 coul/debye 35.
pair_coeff 5 5 coul/debye 35.
pair_coeff 5 7 coul/debye 35.
pair_coeff 5 8 coul/debye 35.
pair_coeff 5 16 coul/debye 35.
pair_coeff 5 23 coul/debye 35.
pair_coeff 5 25 coul/debye 35.
pair_coeff 5 27 coul/debye 35.
pair_coeff 5 28 coul/debye 35.
pair_coeff 5 36 coul/debye 35.
pair_coeff 7 7 coul/debye 35.
pair_coeff 7 8 coul/debye 35.
pair_coeff 7 16 coul/debye 35.
pair_coeff 7 23 coul/debye 35.
pair_coeff 7 25 coul/debye 35.
pair_coeff 7 27 coul/debye 35.
pair_coeff 7 28 coul/debye 35.
pair_coeff 7 36 coul/debye 35.
pair_coeff 8 8 coul/debye 35.
pair_coeff 8 16 coul/debye 35.
pair_coeff 8 23 coul/debye 35.
pair_coeff 8 25 coul/debye 35.
pair_coeff 8 27 coul/debye 35.
pair_coeff 8 28 coul/debye 35.
pair_coeff 8 36 coul/debye 35.
pair_coeff 16 16 coul/debye 35.
pair_coeff 16 23 coul/debye 35.
pair_coeff 16 25 coul/debye 35.
pair_coeff 16 27 coul/debye 35.
pair_coeff 16 28 coul/debye 35.
pair_coeff 16 36 coul/debye 35.
pair_coeff 23 23 coul/debye 35.
pair_coeff 23 25 coul/debye 35.
pair_coeff 23 36 coul/debye 35.
pair_coeff 25 25 coul/debye 35.
pair_coeff 25 27 coul/debye 35.
pair_coeff 25 28 coul/debye 35.
pair_coeff 25 36 coul/debye 35.
pair_coeff 27 27 coul/debye 35.
pair_coeff 27 28 coul/debye 35.
pair_coeff 27 36 coul/debye 35.
pair_coeff 28 28 coul/debye 35.
pair_coeff 28 36 coul/debye 35.
pair_coeff 36 36 coul/debye 35.
pair_coeff 3 27 coul/debye 35.
pair_coeff 3 28 coul/debye 35.
pair_coeff 23 27 coul/debye 35.
pair_coeff 23 28 coul/debye 35.

special_bonds fene
Finding 1-2 1-3 1-4 neighbors ...
  special bond factors lj:    0        1        1       
  special bond factors coul:  0        1        1       
     2 = max # of 1-2 neighbors
     6 = max # of special neighbors
  special bonds CPU = 0.000 seconds
neighbor  3.5 multi
neigh_modify  every 10 delay 0

comm_style    tiled

timer timeout 35:50:00
New timer settings: style=normal  mode=nosync  timeout=11:50:00

velocity      all create $T 494211
velocity      all create 370 494211
fix           fxnve   all nve
fix           fxlange all langevin $T $T 40000.0 32784
fix           fxlange all langevin 370 $T 40000.0 32784
fix           fxlange all langevin 370 370 40000.0 32784

dump          1 all custom 100000 $d-$T.xyz id mol type q xu yu zu
dump          1 all custom 100000 TIA_WT-$T.xyz id mol type q xu yu zu
dump          1 all custom 100000 TIA_WT-370.xyz id mol type q xu yu zu
dump_modify   1 sort id

#compute       rad all gyration
#compute       dis all pair/local dist
#compute       maximo all reduce max c_dis
#compute       mean all reduce ave c_dis

thermo        1000000
thermo_style  custom step pe temp  press ke lx ly lz pzz  spcpu density
thermo_modify flush yes

restart      10000000 restart$T
restart      10000000 restart370

####Minimization

timestep 0.01
run 2000
Neighbor list info ...
  update every 10 steps, delay 0 steps, check yes
  max neighbors/atom: 2000, page size: 100000
  master list distance cutoff = 38.5
  ghost atom cutoff = 38.5
  binsize = 8.7926654, bins = 35 35 35
  2 neighbor lists, perpetual/occasional/extra = 2 0 0
  (1) pair wf/cut, perpetual
      attributes: half, newton on
      pair build: half/multi/newton
      stencil: half/multi/3d/newton
      bin: standard
  (2) pair coul/debye, perpetual, skip from (1)
      attributes: half, newton on
      pair build: skip
      stencil: none
      bin: none
Per MPI rank memory allocation (min/avg/max) = 8.891 | 8.953 | 9.133 Mbytes
Step PotEng Temp Press KinEng Lx Ly Lz Pzz S/CPU Density 
       0   -13.356653          370   0.43782628    105.87837          300          300          300   0.31934756            0 0.00066940445 
    2000   -11.166505    362.45978   0.41750984    103.72068          300          300          300   0.31784001    43003.506 0.00066940445 
Loop time of 0.0465261 on 6 procs for 2000 steps with 97 atoms

Performance: 37.140 ns/day, 0.646 hours/ns, 42986.648 timesteps/s
99.7% CPU use with 6 MPI tasks x no OpenMP threads

MPI task timing breakdown:
Section |  min time  |  avg time  |  max time  |%varavg| %total
---------------------------------------------------------------
Pair    | 0.00054073 | 0.0033446  | 0.016901   |  10.5 |  7.19
Bond    | 7.3433e-05 | 0.00043225 | 0.0021243  |   0.0 |  0.93
Neigh   | 0          | 0          | 0          |   0.0 |  0.00
Comm    | 0.016187   | 0.037706   | 0.042798   |   5.0 | 81.04
Output  | 2.3127e-05 | 3.0398e-05 | 4.0054e-05 |   0.0 |  0.07
Modify  | 0.00026941 | 0.0019958  | 0.010276   |   8.3 |  4.29
Other   |            | 0.003017   |            |       |  6.49

Nlocal:        16.1667 ave          96 max           0 min
Histogram: 5 0 0 0 0 0 0 0 0 1
Nghost:        39.5000 ave          57 max           0 min
Histogram: 1 0 0 0 1 0 0 0 1 3
Neighs:        73.5000 ave         436 max           0 min
Histogram: 5 0 0 0 0 0 0 0 0 1

Total # of neighbors = 441
Ave neighs/atom = 4.5463918
Ave special neighs/atom = 1.9793814
Neighbor list builds = 0
Dangerous builds = 0

timestep 0.1
run 2000
Per MPI rank memory allocation (min/avg/max) = 8.891 | 8.953 | 9.133 Mbytes
Step PotEng Temp Press KinEng Lx Ly Lz Pzz S/CPU Density 
    2000   -11.166505    362.45978   0.41750984    103.72068          300          300          300   0.31784001            0 0.00066940445 
    4000    6.3406462    304.85488  -0.18176055     87.23659          300          300          300  -0.12394765    43058.912 0.00066940445 
Loop time of 0.0464624 on 6 procs for 2000 steps with 97 atoms

Performance: 371.914 ns/day, 0.065 hours/ns, 43045.581 timesteps/s
99.7% CPU use with 6 MPI tasks x no OpenMP threads

MPI task timing breakdown:
Section |  min time  |  avg time  |  max time  |%varavg| %total
---------------------------------------------------------------
Pair    | 0.00052118 | 0.0033407  | 0.016889   |  10.5 |  7.19
Bond    | 6.4611e-05 | 0.00043627 | 0.0021501  |   0.0 |  0.94
Neigh   | 0          | 0          | 0          |   0.0 |  0.00
Comm    | 0.016117   | 0.037684   | 0.042696   |   5.0 | 81.11
Output  | 2.0027e-05 | 2.6663e-05 | 3.4094e-05 |   0.0 |  0.06
Modify  | 0.0002377  | 0.0019884  | 0.010344   |   8.4 |  4.28
Other   |            | 0.002986   |            |       |  6.43

Nlocal:        16.1667 ave          96 max           0 min
Histogram: 5 0 0 0 0 0 0 0 0 1
Nghost:        39.5000 ave          57 max           0 min
Histogram: 1 0 0 0 1 0 0 0 1 3
Neighs:        73.5000 ave         436 max           0 min
Histogram: 5 0 0 0 0 0 0 0 0 1

Total # of neighbors = 441
Ave neighs/atom = 4.5463918
Ave special neighs/atom = 1.9793814
Neighbor list builds = 0
Dangerous builds = 0

timestep 1
run 2000
Per MPI rank memory allocation (min/avg/max) = 8.891 | 8.953 | 9.133 Mbytes
Step PotEng Temp Press KinEng Lx Ly Lz Pzz S/CPU Density 
    4000    6.3406462    304.85488  -0.18176055     87.23659          300          300          300  -0.12394765            0 0.00066940445 
    6000    14.007888    285.85814 -0.077223532    81.800526          300          300          300  0.051459943    43124.877 0.00066940445 
Loop time of 0.0463899 on 6 procs for 2000 steps with 97 atoms

Performance: 3724.949 ns/day, 0.006 hours/ns, 43112.835 timesteps/s
99.8% CPU use with 6 MPI tasks x no OpenMP threads

MPI task timing breakdown:
Section |  min time  |  avg time  |  max time  |%varavg| %total
---------------------------------------------------------------
Pair    | 0.00051284 | 0.0033039  | 0.016505   |  10.3 |  7.12
Bond    | 7.9393e-05 | 0.00043376 | 0.0021224  |   0.0 |  0.94
Neigh   | 0.00032783 | 0.00033267 | 0.00033808 |   0.0 |  0.72
Comm    | 0.016185   | 0.037314   | 0.042374   |   4.9 | 80.44
Output  | 2.1935e-05 | 2.8372e-05 | 3.3855e-05 |   0.0 |  0.06
Modify  | 0.00027728 | 0.0019903  | 0.01022    |   8.3 |  4.29
Other   |            | 0.002987   |            |       |  6.44

Nlocal:        16.1667 ave          95 max           0 min
Histogram: 5 0 0 0 0 0 0 0 0 1
Nghost:        38.8333 ave          58 max           0 min
Histogram: 1 0 0 0 1 0 0 0 3 1
Neighs:        73.6667 ave         430 max           0 min
Histogram: 5 0 0 0 0 0 0 0 0 1

Total # of neighbors = 442
Ave neighs/atom = 4.5567010
Ave special neighs/atom = 1.9793814
Neighbor list builds = 6
Dangerous builds = 0

####Collapse the IDR

timestep 10
run 1000000
Per MPI rank memory allocation (min/avg/max) = 8.892 | 8.974 | 9.133 Mbytes
Step PotEng Temp Press KinEng Lx Ly Lz Pzz S/CPU Density 
    6000    14.007888    285.85814 -0.077223532    81.800526          300          300          300  0.051459943            0 0.00066940445 
 1000000    10.431424    375.21718 -0.00019458178    107.37131          300          300          300   0.12051298    25215.254 0.00066940445 
 1006000    17.458982     376.1193  0.041977105    107.62946          300          300          300  -0.15133665    27638.806 0.00066940445 
Loop time of 39.6378 on 6 procs for 1000000 steps with 97 atoms

Performance: 21797.392 ns/day, 0.001 hours/ns, 25228.463 timesteps/s
99.7% CPU use with 6 MPI tasks x no OpenMP threads

MPI task timing breakdown:
Section |  min time  |  avg time  |  max time  |%varavg| %total
---------------------------------------------------------------
Pair    | 2.7289     | 4.8061     | 7.2601     |  67.7 | 12.13
Bond    | 0.15779    | 0.2173     | 0.28845    |  10.1 |  0.55
Neigh   | 2.0197     | 2.0438     | 2.0533     |   0.8 |  5.16
Comm    | 27.464     | 30.281     | 32.749     |  31.7 | 76.39
Output  | 0.0011768  | 0.0017021  | 0.0041327  |   2.6 |  0.00
Modify  | 0.70146    | 1.0184     | 1.3331     |  22.5 |  2.57
Other   |            | 1.27       |            |       |  3.20

Nlocal:        16.1667 ave          46 max           0 min
Histogram: 2 1 1 0 0 0 1 0 0 1
Nghost:        73.1667 ave         126 max           0 min
Histogram: 2 0 0 0 0 0 1 0 1 2
Neighs:        290.000 ave         828 max           0 min
Histogram: 2 1 1 0 0 0 0 1 0 1

Total # of neighbors = 1740
Ave neighs/atom = 17.938144
Ave special neighs/atom = 1.9793814
Neighbor list builds = 28238
Dangerous builds = 0

####Replicate initial system

replicate 4 4 4
Replicating atoms ...
  orthogonal box = (0.0000000 0.0000000 0.0000000) to (1200.0000 1200.0000 1200.0000)
  1 by 2 by 3 MPI processor grid
  6208 atoms
  6144 bonds
Finding 1-2 1-3 1-4 neighbors ...
  special bond factors lj:    0        1        1       
  special bond factors coul:  0        1        1       
     2 = max # of 1-2 neighbors
     6 = max # of special neighbors
  special bonds CPU = 0.000 seconds
  replicate CPU = 0.001 seconds

run 1
Per MPI rank memory allocation (min/avg/max) = 11.63 | 11.64 | 11.67 Mbytes
Step PotEng Temp Press KinEng Lx Ly Lz Pzz S/CPU Density 
 1006000    1117.3749    372.30176  0.041977105    6888.2854         1200         1200         1200  -0.15133665            0 0.00066940445 
 1006001    1204.3396    367.52498  0.046306388     6799.906         1200         1200         1200  -0.13628237    1540.8905 0.00066940445 
Loop time of 0.000658194 on 6 procs for 1 steps with 6208 atoms

Performance: 1312.682 ns/day, 0.018 hours/ns, 1519.308 timesteps/s
99.6% CPU use with 6 MPI tasks x no OpenMP threads

MPI task timing breakdown:
Section |  min time  |  avg time  |  max time  |%varavg| %total
---------------------------------------------------------------
Pair    | 0.00032806 | 0.00044652 | 0.00052214 |   0.0 | 67.84
Bond    | 1.3828e-05 | 1.8477e-05 | 2.0981e-05 |   0.0 |  2.81
Neigh   | 0          | 0          | 0          |   0.0 |  0.00
Comm    | 1.6928e-05 | 9.3301e-05 | 0.00021601 |   0.0 | 14.18
Output  | 2.7895e-05 | 3.8425e-05 | 5.2929e-05 |   0.0 |  5.84
Modify  | 4.22e-05   | 5.6426e-05 | 6.5088e-05 |   0.0 |  8.57
Other   |            | 5.047e-06  |            |       |  0.77

Nlocal:        1034.67 ave        1208 max         776 min
Histogram: 2 0 0 0 0 0 0 2 0 2
Nghost:        382.000 ave         580 max          74 min
Histogram: 2 0 0 0 0 0 0 0 2 2
Neighs:        18709.3 ave       22488 max       14032 min
Histogram: 2 0 0 0 0 0 2 0 0 2

Total # of neighbors = 112256
Ave neighs/atom = 18.082474
Ave special neighs/atom = 1.9793814
Neighbor list builds = 0
Dangerous builds = 0

####Smaller box size

#change_box all x final 0 300 y final 0 300 z final 0 300 remap

####Loop to compress

variable myDensity equal density
label loop
variable a loop 1000
change_box all x scale 0.95 y scale 0.95 z scale 0.95 remap
Changing box ...
  orthogonal box = (30.000000 0.0000000 0.0000000) to (1170.0000 1200.0000 1200.0000)
  orthogonal box = (30.000000 30.000000 0.0000000) to (1170.0000 1170.0000 1200.0000)
  orthogonal box = (30.000000 30.000000 30.000000) to (1170.0000 1170.0000 1170.0000)
run 8000
Per MPI rank memory allocation (min/avg/max) = 11.63 | 11.64 | 11.67 Mbytes
Step PotEng Temp Press KinEng Lx Ly Lz Pzz S/CPU Density 
 1006001    3483.4421    367.52498    1.7595996     6799.906         1140         1140         1140    1.6012683            0 0.0007807604 
 1014001    824.99394    372.16243  0.014334434    6885.7076         1140         1140         1140  0.022341491    1550.0571 0.0007807604 
Loop time of 5.16242 on 6 procs for 8000 steps with 6208 atoms

Performance: 1338.907 ns/day, 0.018 hours/ns, 1549.661 timesteps/s
99.7% CPU use with 6 MPI tasks x no OpenMP threads

MPI task timing breakdown:
Section |  min time  |  avg time  |  max time  |%varavg| %total
---------------------------------------------------------------
Pair    | 2.2799     | 3.1225     | 3.7467     |  33.7 | 60.48
Bond    | 0.064938   | 0.086498   | 0.10967    |   6.0 |  1.68
Neigh   | 0.46294    | 0.46421    | 0.46554    |   0.1 |  8.99
Comm    | 0.29151    | 1.0138     | 1.9619     |  67.2 | 19.64
Output  | 4.3154e-05 | 0.00027744 | 0.001349   |   0.0 |  0.01
Modify  | 0.3254     | 0.43562    | 0.54821    |  13.4 |  8.44
Other   |            | 0.03961    |            |       |  0.77

Nlocal:        1034.67 ave        1353 max         776 min
Histogram: 2 0 0 2 0 0 0 0 0 2
Nghost:        386.000 ave         773 max          70 min
Histogram: 2 0 0 1 0 1 0 0 1 1
Neighs:        18037.0 ave       22511 max       13371 min
Histogram: 2 0 0 1 0 0 1 0 0 2

Total # of neighbors = 108222
Ave neighs/atom = 17.432668
Ave special neighs/atom = 1.9793814
Neighbor list builds = 342
Dangerous builds = 0

if "${myDensity} > 1.0" then "jump SELF break"

next a
jump SELF loop
variable a loop 1000
change_box all x scale 0.95 y scale 0.95 z scale 0.95 remap
Changing box ...
  orthogonal box = (58.500000 30.000000 30.000000) to (1141.5000 1170.0000 1170.0000)
  orthogonal box = (58.500000 58.500000 30.000000) to (1141.5000 1141.5000 1170.0000)
  orthogonal box = (58.500000 58.500000 58.500000) to (1141.5000 1141.5000 1141.5000)
run 8000
Per MPI rank memory allocation (min/avg/max) = 11.63 | 11.64 | 11.67 Mbytes
Step PotEng Temp Press KinEng Lx Ly Lz Pzz S/CPU Density 
 1014001    2960.9053    372.16243    2.0040506    6885.7076         1083         1083         1083    2.0035828            0 0.0009106405 
 1022001    994.96074    378.53202 -0.0068278975    7003.5571         1083         1083         1083 -0.022101769    1646.3087 0.0009106405 
Loop time of 4.85939 on 6 procs for 8000 steps with 6208 atoms

Performance: 1422.402 ns/day, 0.017 hours/ns, 1646.298 timesteps/s
99.7% CPU use with 6 MPI tasks x no OpenMP threads

MPI task timing breakdown:
Section |  min time  |  avg time  |  max time  |%varavg| %total
---------------------------------------------------------------
Pair    | 1.843      | 2.6534     | 3.5531     |  39.1 | 54.60
Bond    | 0.065233   | 0.086251   | 0.11485    |   6.4 |  1.77
Neigh   | 0.44432    | 0.44557    | 0.44742    |   0.2 |  9.17
Comm    | 0.1515     | 1.1923     | 2.107      |  66.6 | 24.54
Output  | 3.8862e-05 | 5.9485e-05 | 7.1049e-05 |   0.0 |  0.00
Modify  | 0.32583    | 0.43645    | 0.58017    |  14.4 |  8.98
Other   |            | 0.04537    |            |       |  0.93

Nlocal:        1034.67 ave        1337 max         776 min
Histogram: 2 0 0 1 0 0 1 1 0 1
Nghost:        386.500 ave         772 max         111 min
Histogram: 2 0 0 0 2 1 0 0 0 1
Neighs:        16317.8 ave       21229 max       10954 min
Histogram: 2 0 0 0 0 1 1 0 1 1

Total # of neighbors = 97907
Ave neighs/atom = 15.771102
Ave special neighs/atom = 1.9793814
Neighbor list builds = 344
Dangerous builds = 0

if "${myDensity} > 1.0" then "jump SELF break"

next a
jump SELF loop
variable a loop 1000
change_box all x scale 0.95 y scale 0.95 z scale 0.95 remap
Changing box ...
  orthogonal box = (85.575000 58.500000 58.500000) to (1114.4250 1141.5000 1141.5000)
  orthogonal box = (85.575000 85.575000 58.500000) to (1114.4250 1114.4250 1141.5000)
  orthogonal box = (85.575000 85.575000 85.575000) to (1114.4250 1114.4250 1114.4250)
run 8000
Per MPI rank memory allocation (min/avg/max) = 11.63 | 11.64 | 11.67 Mbytes
Step PotEng Temp Press KinEng Lx Ly Lz Pzz S/CPU Density 
 1022001    3081.3036    378.53202    2.3490713    7003.5571      1028.85      1028.85      1028.85      2.40962            0 0.0010621263 
 1030001    878.59214    379.32746 -0.0088262733    7018.2742      1028.85      1028.85      1028.85 0.0091358877    1816.4034 0.0010621263 
Loop time of 4.40442 on 6 procs for 8000 steps with 6208 atoms

Performance: 1569.333 ns/day, 0.015 hours/ns, 1816.357 timesteps/s
99.7% CPU use with 6 MPI tasks x no OpenMP threads

MPI task timing breakdown:
Section |  min time  |  avg time  |  max time  |%varavg| %total
---------------------------------------------------------------
Pair    | 1.7495     | 2.5308     | 3.1642     |  36.2 | 57.46
Bond    | 0.064935   | 0.086164   | 0.10772    |   5.5 |  1.96
Neigh   | 0.40706    | 0.40866    | 0.41068    |   0.2 |  9.28
Comm    | 0.20686    | 0.90495    | 1.7912     |  69.0 | 20.55
Output  | 4.3154e-05 | 7.1526e-05 | 0.0001471  |   0.0 |  0.00
Modify  | 0.32592    | 0.4364     | 0.54491    |  12.8 |  9.91
Other   |            | 0.03735    |            |       |  0.85

Nlocal:        1034.67 ave        1276 max         776 min
Histogram: 2 0 0 0 0 1 0 2 0 1
Nghost:        399.333 ave         652 max         135 min
Histogram: 2 0 0 0 0 0 3 0 0 1
Neighs:        15856.3 ave       20796 max       10951 min
Histogram: 2 0 0 0 0 1 1 1 0 1

Total # of neighbors = 95138
Ave neighs/atom = 15.325064
Ave special neighs/atom = 1.9793814
Neighbor list builds = 346
Dangerous builds = 0

if "${myDensity} > 1.0" then "jump SELF break"

next a
jump SELF loop
variable a loop 1000
change_box all x scale 0.95 y scale 0.95 z scale 0.95 remap
Changing box ...
  orthogonal box = (111.29625 85.575000 85.575000) to (1088.7037 1114.4250 1114.4250)
  orthogonal box = (111.29625 111.29625 85.575000) to (1088.7037 1088.7037 1114.4250)
  orthogonal box = (111.29625 111.29625 111.29625) to (1088.7037 1088.7037 1088.7037)
run 8000
Per MPI rank memory allocation (min/avg/max) = 11.63 | 11.64 | 11.67 Mbytes
Step PotEng Temp Press KinEng Lx Ly Lz Pzz S/CPU Density 
 1030001    2915.7224    379.32746    2.6747196    7018.2742     977.4075     977.4075     977.4075    2.6929166            0 0.0012388118 
 1038001    1048.5483    381.63278 -0.00077995846    7060.9269     977.4075     977.4075     977.4075  0.021545868    1905.1288 0.0012388118 
Loop time of 4.19931 on 6 procs for 8000 steps with 6208 atoms

Performance: 1645.986 ns/day, 0.015 hours/ns, 1905.076 timesteps/s
99.7% CPU use with 6 MPI tasks x no OpenMP threads

MPI task timing breakdown:
Section |  min time  |  avg time  |  max time  |%varavg| %total
---------------------------------------------------------------
Pair    | 1.7883     | 2.4395     | 2.9884     |  30.4 | 58.09
Bond    | 0.064985   | 0.086171   | 0.10829    |   5.6 |  2.05
Neigh   | 0.38504    | 0.3863     | 0.38754    |   0.1 |  9.20
Comm    | 0.19647    | 0.81234    | 1.5722     |  61.6 | 19.34
Output  | 4.3154e-05 | 7.5579e-05 | 0.00015497 |   0.0 |  0.00
Modify  | 0.32609    | 0.43674    | 0.54674    |  12.8 | 10.40
Other   |            | 0.03821    |            |       |  0.91

Nlocal:        1034.67 ave        1311 max         776 min
Histogram: 2 0 0 0 1 0 0 2 0 1
Nghost:        445.167 ave         671 max         206 min
Histogram: 2 0 0 0 0 1 1 1 0 1
Neighs:        14807.8 ave       17557 max       10860 min
Histogram: 1 1 0 0 0 1 0 0 1 2

Total # of neighbors = 88847
Ave neighs/atom = 14.311695
Ave special neighs/atom = 1.9793814
Neighbor list builds = 349
Dangerous builds = 0

if "${myDensity} > 1.0" then "jump SELF break"

next a
jump SELF loop
variable a loop 1000
change_box all x scale 0.95 y scale 0.95 z scale 0.95 remap
Changing box ...
  orthogonal box = (135.73144 111.29625 111.29625) to (1064.2686 1088.7037 1088.7037)
  orthogonal box = (135.73144 135.73144 111.29625) to (1064.2686 1064.2686 1088.7037)
  orthogonal box = (135.73144 135.73144 135.73144) to (1064.2686 1064.2686 1064.2686)
run 8000
Per MPI rank memory allocation (min/avg/max) = 11.63 | 11.64 | 11.67 Mbytes
Step PotEng Temp Press KinEng Lx Ly Lz Pzz S/CPU Density 
 1038001    3086.4176    381.63278    3.1105061    7060.9269    928.53712    928.53712    928.53712    3.1395733            0 0.0014448891 
 1046001    990.55499    373.73169  0.046122645    6914.7418    928.53712    928.53712    928.53712  0.051175498    1891.5235 0.0014448891 
Loop time of 4.22943 on 6 procs for 8000 steps with 6208 atoms

Performance: 1634.261 ns/day, 0.015 hours/ns, 1891.506 timesteps/s
99.7% CPU use with 6 MPI tasks x no OpenMP threads

MPI task timing breakdown:
Section |  min time  |  avg time  |  max time  |%varavg| %total
---------------------------------------------------------------
Pair    | 1.7574     | 2.4705     | 2.9885     |  31.4 | 58.41
Bond    | 0.064958   | 0.086119   | 0.10729    |   5.5 |  2.04
Neigh   | 0.38092    | 0.3823     | 0.38349    |   0.1 |  9.04
Comm    | 0.19495    | 0.81591    | 1.638      |  63.0 | 19.29
Output  | 4.7922e-05 | 6.3936e-05 | 7.7963e-05 |   0.0 |  0.00
Modify  | 0.32662    | 0.43703    | 0.54206    |  12.5 | 10.33
Other   |            | 0.03751    |            |       |  0.89

Nlocal:        1034.67 ave        1249 max         777 min
Histogram: 2 0 0 0 0 0 1 1 1 1
Nghost:        510.833 ave         655 max         372 min
Histogram: 2 0 0 0 2 0 0 0 0 2
Neighs:        15828.2 ave       20452 max       10376 min
Histogram: 1 1 0 0 0 1 0 2 0 1

Total # of neighbors = 94969
Ave neighs/atom = 15.297841
Ave special neighs/atom = 1.9793814
Neighbor list builds = 355
Dangerous builds = 0

if "${myDensity} > 1.0" then "jump SELF break"

next a
jump SELF loop
variable a loop 1000
change_box all x scale 0.95 y scale 0.95 z scale 0.95 remap
Changing box ...
  orthogonal box = (158.94487 135.73144 135.73144) to (1041.0551 1064.2686 1064.2686)
  orthogonal box = (158.94487 158.94487 135.73144) to (1041.0551 1041.0551 1064.2686)
  orthogonal box = (158.94487 158.94487 158.94487) to (1041.0551 1041.0551 1041.0551)
run 8000
Per MPI rank memory allocation (min/avg/max) = 11.63 | 11.64 | 11.67 Mbytes
Step PotEng Temp Press KinEng Lx Ly Lz Pzz S/CPU Density 
 1046001    3152.8568    373.73169    3.7249657    6914.7418    882.11027    882.11027    882.11027    3.6979411            0 0.0016852475 
 1054001    875.07246    372.89678 -0.0036624537    6899.2945    882.11027    882.11027    882.11027 0.0055307419    1895.2505 0.0016852475 
Loop time of 4.22121 on 6 procs for 8000 steps with 6208 atoms

Performance: 1637.446 ns/day, 0.015 hours/ns, 1895.192 timesteps/s
99.7% CPU use with 6 MPI tasks x no OpenMP threads

MPI task timing breakdown:
Section |  min time  |  avg time  |  max time  |%varavg| %total
---------------------------------------------------------------
Pair    | 1.7545     | 2.492      | 3.0283     |  34.2 | 59.04
Bond    | 0.065943   | 0.086064   | 0.098385   |   4.8 |  2.04
Neigh   | 0.36368    | 0.36486    | 0.36617    |   0.1 |  8.64
Comm    | 0.20555    | 0.81372    | 1.6529     |  67.8 | 19.28
Output  | 3.7909e-05 | 6.5962e-05 | 0.00016212 |   0.0 |  0.00
Modify  | 0.33257    | 0.43578    | 0.50822    |  11.1 | 10.32
Other   |            | 0.0287     |            |       |  0.68

Nlocal:        1034.67 ave        1192 max         772 min
Histogram: 1 1 0 0 0 0 0 0 2 2
Nghost:        540.500 ave         651 max         479 min
Histogram: 2 0 1 1 1 0 0 0 0 1
Neighs:        15529.8 ave       18786 max       10354 min
Histogram: 1 1 0 0 0 0 0 0 3 1

Total # of neighbors = 93179
Ave neighs/atom = 15.009504
Ave special neighs/atom = 1.9793814
Neighbor list builds = 350
Dangerous builds = 0

if "${myDensity} > 1.0" then "jump SELF break"

next a
jump SELF loop
variable a loop 1000
change_box all x scale 0.95 y scale 0.95 z scale 0.95 remap
Changing box ...
  orthogonal box = (180.99762 158.94487 158.94487) to (1019.0024 1041.0551 1041.0551)
  orthogonal box = (180.99762 180.99762 158.94487) to (1019.0024 1019.0024 1041.0551)
  orthogonal box = (180.99762 180.99762 180.99762) to (1019.0024 1019.0024 1019.0024)
run 8000
Per MPI rank memory allocation (min/avg/max) = 11.63 | 11.64 | 11.67 Mbytes
Step PotEng Temp Press KinEng Lx Ly Lz Pzz S/CPU Density 
 1054001    2961.2262    372.89678    4.2907672    6899.2945    838.00476    838.00476    838.00476    4.2089518            0 0.0019655898 
 1062001    999.08758    374.17739  -0.09118251    6922.9881    838.00476    838.00476    838.00476  -0.12244542    1978.4027 0.0019655898 
Loop time of 4.04378 on 6 procs for 8000 steps with 6208 atoms

Performance: 1709.290 ns/day, 0.014 hours/ns, 1978.345 timesteps/s
99.7% CPU use with 6 MPI tasks x no OpenMP threads

MPI task timing breakdown:
Section |  min time  |  avg time  |  max time  |%varavg| %total
---------------------------------------------------------------
Pair    | 1.6074     | 2.405      | 2.9439     |  31.0 | 59.47
Bond    | 0.063939   | 0.086042   | 0.09645    |   4.7 |  2.13
Neigh   | 0.33791    | 0.3394     | 0.34085    |   0.2 |  8.39
Comm    | 0.16004    | 0.75213    | 1.6641     |  63.5 | 18.60
Output  | 3.9101e-05 | 6.4254e-05 | 0.0001471  |   0.0 |  0.00
Modify  | 0.32251    | 0.43556    | 0.49155    |  10.7 | 10.77
Other   |            | 0.02559    |            |       |  0.63

Nlocal:        1034.67 ave        1176 max         755 min
Histogram: 1 0 1 0 0 0 0 0 1 3
Nghost:        602.667 ave         724 max         511 min
Histogram: 2 1 0 0 0 0 1 1 0 1
Neighs:        15201.8 ave       18213 max        9810 min
Histogram: 1 0 0 1 0 0 0 1 1 2

Total # of neighbors = 91211
Ave neighs/atom = 14.692494
Ave special neighs/atom = 1.9793814
Neighbor list builds = 344
Dangerous builds = 0

if "${myDensity} > 1.0" then "jump SELF break"

next a
jump SELF loop
variable a loop 1000
change_box all x scale 0.95 y scale 0.95 z scale 0.95 remap
Changing box ...
  orthogonal box = (201.94774 180.99762 180.99762) to (998.05226 1019.0024 1019.0024)
  orthogonal box = (201.94774 201.94774 180.99762) to (998.05226 998.05226 1019.0024)
  orthogonal box = (201.94774 201.94774 201.94774) to (998.05226 998.05226 998.05226)
run 8000
Per MPI rank memory allocation (min/avg/max) = 11.63 | 11.64 | 11.67 Mbytes
Step PotEng Temp Press KinEng Lx Ly Lz Pzz S/CPU Density 
 1062001    2938.7508    374.17739    4.8421893    6922.9881    796.10452    796.10452    796.10452    4.7830513            0 0.0022925672 
 1070001    927.79402    377.48408  0.074707208    6984.1681    796.10452    796.10452    796.10452   0.14167741    1946.3513 0.0022925672 
Loop time of 4.11067 on 6 procs for 8000 steps with 6208 atoms

Performance: 1681.476 ns/day, 0.014 hours/ns, 1946.152 timesteps/s
99.7% CPU use with 6 MPI tasks x no OpenMP threads

MPI task timing breakdown:
Section |  min time  |  avg time  |  max time  |%varavg| %total
---------------------------------------------------------------
Pair    | 1.8012     | 2.4715     | 3.0019     |  26.3 | 60.12
Bond    | 0.066314   | 0.086262   | 0.098167   |   3.9 |  2.10
Neigh   | 0.33409    | 0.33531    | 0.33686    |   0.2 |  8.16
Comm    | 0.17641    | 0.75475    | 1.5273     |  53.6 | 18.36
Output  | 3.9101e-05 | 0.00011671 | 0.000453   |   0.0 |  0.00
Modify  | 0.3341     | 0.43555    | 0.4937     |   9.0 | 10.60
Other   |            | 0.02716    |            |       |  0.66

Nlocal:        1034.67 ave        1205 max         822 min
Histogram: 1 1 0 0 0 1 0 1 0 2
Nghost:        636.833 ave         821 max         524 min
Histogram: 2 0 0 1 2 0 0 0 0 1
Neighs:        16014.8 ave       20371 max       12391 min
Histogram: 1 1 1 0 0 1 0 0 1 1

Total # of neighbors = 96089
Ave neighs/atom = 15.478254
Ave special neighs/atom = 1.9793814
Neighbor list builds = 346
Dangerous builds = 0

if "${myDensity} > 1.0" then "jump SELF break"

next a
jump SELF loop
variable a loop 1000
change_box all x scale 0.95 y scale 0.95 z scale 0.95 remap
Changing box ...
  orthogonal box = (221.85035 201.94774 201.94774) to (978.14965 998.05226 998.05226)
  orthogonal box = (221.85035 221.85035 201.94774) to (978.14965 978.14965 998.05226)
  orthogonal box = (221.85035 221.85035 221.85035) to (978.14965 978.14965 978.14965)
run 8000
Per MPI rank memory allocation (min/avg/max) = 11.63 | 11.64 | 11.67 Mbytes
Step PotEng Temp Press KinEng Lx Ly Lz Pzz S/CPU Density 
 1070001    3095.6257    377.48408    5.9328713    6984.1681    756.29929    756.29929    756.29929    6.0038272            0 0.0026739375 
 1078001    887.70703    379.75059  -0.01675476    7026.1028    756.29929    756.29929    756.29929 0.0010653186    1886.4632 0.0026739375 
Loop time of 4.24085 on 6 procs for 8000 steps with 6208 atoms

Performance: 1629.862 ns/day, 0.015 hours/ns, 1886.414 timesteps/s
99.7% CPU use with 6 MPI tasks x no OpenMP threads

MPI task timing breakdown:
Section |  min time  |  avg time  |  max time  |%varavg| %total
---------------------------------------------------------------
Pair    | 2.1237     | 2.5798     | 3.0491     |  24.0 | 60.83
Bond    | 0.070622   | 0.086157   | 0.098562   |   3.6 |  2.03
Neigh   | 0.33432    | 0.33522    | 0.33685    |   0.2 |  7.90
Comm    | 0.23076    | 0.77446    | 1.3097     |  49.2 | 18.26
Output  | 3.8147e-05 | 6.5009e-05 | 0.00014591 |   0.0 |  0.00
Modify  | 0.35732    | 0.43629    | 0.51154    |   8.5 | 10.29
Other   |            | 0.02882    |            |       |  0.68

Nlocal:        1034.67 ave        1171 max         853 min
Histogram: 2 0 0 0 0 0 1 1 0 2
Nghost:        681.667 ave         820 max         535 min
Histogram: 1 1 0 1 0 0 1 0 0 2
Neighs:        16368.5 ave       20149 max       13854 min
Histogram: 1 2 0 0 0 2 0 0 0 1

Total # of neighbors = 98211
Ave neighs/atom = 15.820071
Ave special neighs/atom = 1.9793814
Neighbor list builds = 342
Dangerous builds = 0

if "${myDensity} > 1.0" then "jump SELF break"

next a
jump SELF loop
variable a loop 1000
change_box all x scale 0.95 y scale 0.95 z scale 0.95 remap
Changing box ...
  orthogonal box = (240.75784 221.85035 221.85035) to (959.24216 978.14965 978.14965)
  orthogonal box = (240.75784 240.75784 221.85035) to (959.24216 959.24216 978.14965)
  orthogonal box = (240.75784 240.75784 240.75784) to (959.24216 959.24216 959.24216)
run 8000
Per MPI rank memory allocation (min/avg/max) = 11.63 | 11.65 | 11.67 Mbytes
Step PotEng Temp Press KinEng Lx Ly Lz Pzz S/CPU Density 
 1078001    2950.4761    379.75059    6.7966778    7026.1028    718.48433    718.48433    718.48433    6.8222305            0 0.0031187491 
 1086001    1014.4665    380.12773 0.0054619152    7033.0807    718.48433    718.48433    718.48433  0.065341707    1880.6895 0.0031187491 
Loop time of 4.25387 on 6 procs for 8000 steps with 6208 atoms

Performance: 1624.873 ns/day, 0.015 hours/ns, 1880.640 timesteps/s
99.7% CPU use with 6 MPI tasks x no OpenMP threads

MPI task timing breakdown:
Section |  min time  |  avg time  |  max time  |%varavg| %total
---------------------------------------------------------------
Pair    | 1.8646     | 2.4588     | 3.071      |  27.4 | 57.80
Bond    | 0.068631   | 0.086271   | 0.099623   |   3.6 |  2.03
Neigh   | 0.33715    | 0.33876    | 0.34139    |   0.2 |  7.96
Comm    | 0.22805    | 0.90318    | 1.5891     |  50.7 | 21.23
Output  | 4.0054e-05 | 6.628e-05  | 0.00015211 |   0.0 |  0.00
Modify  | 0.34332    | 0.43689    | 0.50144    |   8.4 | 10.27
Other   |            | 0.02995    |            |       |  0.70

Nlocal:        1034.67 ave        1213 max         798 min
Histogram: 1 0 0 1 0 1 1 0 1 1
Nghost:        711.833 ave         995 max         602 min
Histogram: 3 0 2 0 0 0 0 0 0 1
Neighs:        15429.8 ave       19103 max       11945 min
Histogram: 2 0 1 0 0 0 1 0 0 2

Total # of neighbors = 92579
Ave neighs/atom = 14.912854
Ave special neighs/atom = 1.9793814
Neighbor list builds = 348
Dangerous builds = 0

if "${myDensity} > 1.0" then "jump SELF break"

next a
jump SELF loop
variable a loop 1000
change_box all x scale 0.95 y scale 0.95 z scale 0.95 remap
Changing box ...
  orthogonal box = (258.71994 240.75784 240.75784) to (941.28006 959.24216 959.24216)
  orthogonal box = (258.71994 258.71994 240.75784) to (941.28006 941.28006 959.24216)
  orthogonal box = (258.71994 258.71994 258.71994) to (941.28006 941.28006 941.28006)
run 8000
Per MPI rank memory allocation (min/avg/max) = 11.63 | 11.65 | 11.68 Mbytes
Step PotEng Temp Press KinEng Lx Ly Lz Pzz S/CPU Density 
 1086001    3093.9614    380.12773    7.9444382    7033.0807    682.56011    682.56011    682.56011    7.9900718            0 0.0036375554 
 1094001    920.23476    377.74994   0.14625642     6989.087    682.56011    682.56011    682.56011   0.29295907    1802.8356 0.0036375554 
Loop time of 4.43799 on 6 procs for 8000 steps with 6208 atoms

Performance: 1557.463 ns/day, 0.015 hours/ns, 1802.619 timesteps/s
99.7% CPU use with 6 MPI tasks x no OpenMP threads

MPI task timing breakdown:
Section |  min time  |  avg time  |  max time  |%varavg| %total
---------------------------------------------------------------
Pair    | 1.9808     | 2.4854     | 3.2391     |  32.2 | 56.00
Bond    | 0.06963    | 0.086059   | 0.10222    |   4.0 |  1.94
Neigh   | 0.34797    | 0.34947    | 0.3521     |   0.2 |  7.87
Comm    | 0.19644    | 1.0431     | 1.6338     |  55.6 | 23.50
Output  | 4.0054e-05 | 0.00013816 | 0.00057888 |   0.0 |  0.00
Modify  | 0.34822    | 0.43661    | 0.52937    |   9.5 |  9.84
Other   |            | 0.03715    |            |       |  0.84

Nlocal:        1034.67 ave        1257 max         871 min
Histogram: 2 0 1 0 1 0 0 1 0 1
Nghost:        749.500 ave        1102 max         551 min
Histogram: 2 0 1 1 1 0 0 0 0 1
Neighs:        15788.3 ave       20711 max       13110 min
Histogram: 3 1 0 0 0 0 0 0 0 2

Total # of neighbors = 94730
Ave neighs/atom = 15.259343
Ave special neighs/atom = 1.9793814
Neighbor list builds = 348
Dangerous builds = 0

if "${myDensity} > 1.0" then "jump SELF break"

next a
jump SELF loop
variable a loop 1000
change_box all x scale 0.95 y scale 0.95 z scale 0.95 remap
Changing box ...
  orthogonal box = (275.78395 258.71994 258.71994) to (924.21605 941.28006 941.28006)
  orthogonal box = (275.78395 275.78395 258.71994) to (924.21605 924.21605 941.28006)
  orthogonal box = (275.78395 275.78395 275.78395) to (924.21605 924.21605 924.21605)
run 8000
Per MPI rank memory allocation (min/avg/max) = 11.63 | 11.65 | 11.68 Mbytes
Step PotEng Temp Press KinEng Lx Ly Lz Pzz S/CPU Density 
 1094001    3093.0464    377.74994    9.3937879     6989.087    648.43211    648.43211    648.43211    9.7937805            0 0.0042426656 
 1102001    913.83539    365.97573  -0.19847801     6771.242    648.43211    648.43211    648.43211  -0.17596612    1698.7352 0.0042426656 
Loop time of 4.70951 on 6 procs for 8000 steps with 6208 atoms

Performance: 1467.669 ns/day, 0.016 hours/ns, 1698.691 timesteps/s
99.7% CPU use with 6 MPI tasks x no OpenMP threads

MPI task timing breakdown:
Section |  min time  |  avg time  |  max time  |%varavg| %total
---------------------------------------------------------------
Pair    | 1.9923     | 2.5109     | 3.4841     |  32.3 | 53.32
Bond    | 0.068886   | 0.086248   | 0.10933    |   4.6 |  1.83
Neigh   | 0.35784    | 0.36012    | 0.36322    |   0.3 |  7.65
Comm    | 0.17117    | 1.2732     | 1.8825     |  51.7 | 27.03
Output  | 0.0023689  | 0.002544   | 0.0028212  |   0.3 |  0.05
Modify  | 0.34541    | 0.43651    | 0.56512    |  11.0 |  9.27
Other   |            | 0.03998    |            |       |  0.85

Nlocal:        1034.67 ave        1291 max         807 min
Histogram: 1 1 0 1 0 1 0 1 0 1
Nghost:        787.833 ave        1061 max         573 min
Histogram: 2 0 1 0 0 1 0 1 0 1
Neighs:        16028.0 ave       21682 max       13087 min
Histogram: 3 0 0 1 0 1 0 0 0 1

Total # of neighbors = 96168
Ave neighs/atom = 15.490979
Ave special neighs/atom = 1.9793814
Neighbor list builds = 348
Dangerous builds = 0

if "${myDensity} > 1.0" then "jump SELF break"

next a
jump SELF loop
variable a loop 1000
change_box all x scale 0.95 y scale 0.95 z scale 0.95 remap
Changing box ...
  orthogonal box = (291.99475 275.78395 275.78395) to (908.00525 924.21605 924.21605)
  orthogonal box = (291.99475 291.99475 275.78395) to (908.00525 908.00525 924.21605)
  orthogonal box = (291.99475 291.99475 291.99475) to (908.00525 908.00525 908.00525)
run 8000
Per MPI rank memory allocation (min/avg/max) = 11.77 | 11.81 | 11.85 Mbytes
Step PotEng Temp Press KinEng Lx Ly Lz Pzz S/CPU Density 
 1102001    2875.7422    365.97573      10.4869     6771.242     616.0105     616.0105     616.0105    10.497281            0 0.0049484363 
 1110001    917.30803    376.10664   0.03785285     6958.683     616.0105     616.0105     616.0105   0.19075482    1816.0735 0.0049484363 
Loop time of 4.40524 on 6 procs for 8000 steps with 6208 atoms

Performance: 1569.042 ns/day, 0.015 hours/ns, 1816.021 timesteps/s
99.7% CPU use with 6 MPI tasks x no OpenMP threads

MPI task timing breakdown:
Section |  min time  |  avg time  |  max time  |%varavg| %total
---------------------------------------------------------------
Pair    | 1.9128     | 2.5528     | 3.2143     |  30.6 | 57.95
Bond    | 0.065849   | 0.086168   | 0.10386    |   4.6 |  1.96
Neigh   | 0.33509    | 0.33736    | 0.34008    |   0.3 |  7.66
Comm    | 0.19486    | 0.95637    | 1.7015     |  57.4 | 21.71
Output  | 3.9101e-05 | 7.3234e-05 | 0.0001862  |   0.0 |  0.00
Modify  | 0.33014    | 0.43669    | 0.53852    |  11.1 |  9.91
Other   |            | 0.03582    |            |       |  0.81

Nlocal:        1034.67 ave        1251 max         750 min
Histogram: 1 0 1 0 1 0 0 0 2 1
Nghost:        859.667 ave        1081 max         631 min
Histogram: 1 0 0 1 2 0 0 1 0 1
Neighs:        16301.0 ave       20540 max       11453 min
Histogram: 1 1 0 0 1 0 0 0 2 1

Total # of neighbors = 97806
Ave neighs/atom = 15.754832
Ave special neighs/atom = 1.9793814
Neighbor list builds = 345
Dangerous builds = 0

if "${myDensity} > 1.0" then "jump SELF break"

next a
jump SELF loop
variable a loop 1000
change_box all x scale 0.95 y scale 0.95 z scale 0.95 remap
Changing box ...
  orthogonal box = (307.39501 291.99475 291.99475) to (892.60499 908.00525 908.00525)
  orthogonal box = (307.39501 307.39501 291.99475) to (892.60499 892.60499 908.00525)
  orthogonal box = (307.39501 307.39501 307.39501) to (892.60499 892.60499 892.60499)
run 8000
Per MPI rank memory allocation (min/avg/max) = 11.77 | 11.81 | 11.85 Mbytes
Step PotEng Temp Press KinEng Lx Ly Lz Pzz S/CPU Density 
 1110001    3012.9028    376.10664    12.609039     6958.683    585.20997    585.20997    585.20997    12.910015            0 0.0057716126 
 1118001    1001.5044    374.11942  -0.14292477    6921.9157    585.20997    585.20997    585.20997  -0.44611173    1901.4651 0.0057716126 
Loop time of 4.20739 on 6 procs for 8000 steps with 6208 atoms

Performance: 1642.822 ns/day, 0.015 hours/ns, 1901.414 timesteps/s
99.7% CPU use with 6 MPI tasks x no OpenMP threads

MPI task timing breakdown:
Section |  min time  |  avg time  |  max time  |%varavg| %total
---------------------------------------------------------------
Pair    | 1.9193     | 2.4973     | 2.9701     |  27.5 | 59.35
Bond    | 0.066273   | 0.086383   | 0.10161    |   4.4 |  2.05
Neigh   | 0.31645    | 0.31807    | 0.32013    |   0.3 |  7.56
Comm    | 0.28685    | 0.83715    | 1.5171     |  54.8 | 19.90
Output  | 3.8147e-05 | 6.5287e-05 | 0.00016117 |   0.0 |  0.00
Modify  | 0.33294    | 0.43652    | 0.51143    |  10.4 | 10.38
Other   |            | 0.03194    |            |       |  0.76

Nlocal:        1034.67 ave        1250 max         832 min
Histogram: 1 0 0 2 0 1 1 0 0 1
Nghost:        923.000 ave        1103 max         717 min
Histogram: 1 0 0 2 0 1 0 0 0 2
Neighs:        16170.5 ave       18796 max       13735 min
Histogram: 1 1 1 0 0 1 0 0 0 2

Total # of neighbors = 97023
Ave neighs/atom = 15.628705
Ave special neighs/atom = 1.9793814
Neighbor list builds = 342
Dangerous builds = 0

if "${myDensity} > 1.0" then "jump SELF break"

next a
jump SELF loop
variable a loop 1000
change_box all x scale 0.95 y scale 0.95 z scale 0.95 remap
Changing box ...
  orthogonal box = (322.02526 307.39501 307.39501) to (877.97474 892.60499 892.60499)
  orthogonal box = (322.02526 322.02526 307.39501) to (877.97474 877.97474 892.60499)
  orthogonal box = (322.02526 322.02526 322.02526) to (877.97474 877.97474 877.97474)
run 8000
Per MPI rank memory allocation (min/avg/max) = 11.77 | 11.81 | 11.85 Mbytes
Step PotEng Temp Press KinEng Lx Ly Lz Pzz S/CPU Density 
 1118001    3018.7436    374.11942    14.493459    6921.9157    555.94948    555.94948    555.94948    14.193641            0 0.0067317249 
 1126001    1013.2348    368.36243 -0.044288257    6815.4004    555.94948    555.94948    555.94948   0.25187742     1906.406 0.0067317249 
Loop time of 4.19641 on 6 procs for 8000 steps with 6208 atoms

Performance: 1647.121 ns/day, 0.015 hours/ns, 1906.390 timesteps/s
99.7% CPU use with 6 MPI tasks x no OpenMP threads

MPI task timing breakdown:
Section |  min time  |  avg time  |  max time  |%varavg| %total
---------------------------------------------------------------
Pair    | 2.3333     | 2.5548     | 2.9708     |  13.6 | 60.88
Bond    | 0.074358   | 0.086462   | 0.10336    |   3.1 |  2.06
Neigh   | 0.31478    | 0.31599    | 0.31739    |   0.2 |  7.53
Comm    | 0.26933    | 0.77053    | 1.0225     |  29.7 | 18.36
Output  | 4.22e-05   | 5.4757e-05 | 8.2016e-05 |   0.0 |  0.00
Modify  | 0.37184    | 0.43584    | 0.52078    |   7.0 | 10.39
Other   |            | 0.03273    |            |       |  0.78

Nlocal:        1034.67 ave        1208 max         914 min
Histogram: 1 1 0 2 0 0 1 0 0 1
Nghost:        1057.33 ave        1281 max         755 min
Histogram: 1 0 0 1 0 1 1 0 0 2
Neighs:        15412.0 ave       17089 max       13487 min
Histogram: 1 0 0 2 0 0 1 0 0 2

Total # of neighbors = 92472
Ave neighs/atom = 14.895619
Ave special neighs/atom = 1.9793814
Neighbor list builds = 342
Dangerous builds = 0

if "${myDensity} > 1.0" then "jump SELF break"

next a
jump SELF loop
variable a loop 1000
change_box all x scale 0.95 y scale 0.95 z scale 0.95 remap
Changing box ...
  orthogonal box = (335.92400 322.02526 322.02526) to (864.07600 877.97474 877.97474)
  orthogonal box = (335.92400 335.92400 322.02526) to (864.07600 864.07600 877.97474)
  orthogonal box = (335.92400 335.92400 335.92400) to (864.07600 864.07600 864.07600)
run 8000
Per MPI rank memory allocation (min/avg/max) = 11.77 | 11.81 | 11.85 Mbytes
Step PotEng Temp Press KinEng Lx Ly Lz Pzz S/CPU Density 
 1126001    3076.4177    368.36243    16.964923    6815.4004      528.152      528.152      528.152    17.360238            0 0.0078515525 
 1134001    925.84672    378.08129  0.024760311    6995.2177      528.152      528.152      528.152  -0.11920259    1941.4116 0.0078515525 
Loop time of 4.12083 on 6 procs for 8000 steps with 6208 atoms

Performance: 1677.332 ns/day, 0.014 hours/ns, 1941.357 timesteps/s
99.7% CPU use with 6 MPI tasks x no OpenMP threads

MPI task timing breakdown:
Section |  min time  |  avg time  |  max time  |%varavg| %total
---------------------------------------------------------------
Pair    | 1.9945     | 2.4802     | 2.8659     |  18.5 | 60.19
Bond    | 0.074115   | 0.086457   | 0.099143   |   3.3 |  2.10
Neigh   | 0.30633    | 0.30748    | 0.30918    |   0.2 |  7.46
Comm    | 0.35613    | 0.77968    | 1.3195     |  37.6 | 18.92
Output  | 4.4823e-05 | 6.9936e-05 | 0.00016403 |   0.0 |  0.00
Modify  | 0.37191    | 0.43596    | 0.50067    |   7.3 | 10.58
Other   |            | 0.03103    |            |       |  0.75

Nlocal:        1034.67 ave        1171 max         852 min
Histogram: 2 0 0 0 0 0 1 0 1 2
Nghost:        1150.50 ave        1361 max         890 min
Histogram: 2 0 0 0 0 1 0 0 1 2
Neighs:        16082.5 ave       18275 max       13464 min
Histogram: 2 0 0 0 0 0 0 2 1 1

Total # of neighbors = 96495
Ave neighs/atom = 15.543653
Ave special neighs/atom = 1.9793814
Neighbor list builds = 347
Dangerous builds = 0

if "${myDensity} > 1.0" then "jump SELF break"

next a
jump SELF loop
variable a loop 1000
change_box all x scale 0.95 y scale 0.95 z scale 0.95 remap
Changing box ...
  orthogonal box = (349.12780 335.92400 335.92400) to (850.87220 864.07600 864.07600)
  orthogonal box = (349.12780 349.12780 335.92400) to (850.87220 850.87220 864.07600)
  orthogonal box = (349.12780 349.12780 349.12780) to (850.87220 850.87220 850.87220)
run 8000
Per MPI rank memory allocation (min/avg/max) = 11.77 | 11.81 | 11.86 Mbytes
Step PotEng Temp Press KinEng Lx Ly Lz Pzz S/CPU Density 
 1134001    3001.1967    378.08129    19.923086    6995.2177     501.7444     501.7444     501.7444    19.917941            0 0.0091576644 
 1142001    928.53911    377.05064   0.31442129    6976.1486     501.7444     501.7444     501.7444   0.29027813    1874.8816 0.0091576644 
Loop time of 4.26697 on 6 procs for 8000 steps with 6208 atoms

Performance: 1619.884 ns/day, 0.015 hours/ns, 1874.866 timesteps/s
99.8% CPU use with 6 MPI tasks x no OpenMP threads

MPI task timing breakdown:
Section |  min time  |  avg time  |  max time  |%varavg| %total
---------------------------------------------------------------
Pair    | 2.0039     | 2.4996     | 2.9618     |  22.4 | 58.58
Bond    | 0.068542   | 0.086382   | 0.099895   |   4.3 |  2.02
Neigh   | 0.31404    | 0.31595    | 0.31853    |   0.3 |  7.40
Comm    | 0.38212    | 0.89591    | 1.4681     |  43.3 | 21.00
Output  | 4.3869e-05 | 6.024e-05  | 9.2983e-05 |   0.0 |  0.00
Modify  | 0.34718    | 0.43595    | 0.50397    |   9.5 | 10.22
Other   |            | 0.03315    |            |       |  0.78

Nlocal:        1034.67 ave        1239 max         794 min
Histogram: 2 0 0 0 1 0 0 1 0 2
Nghost:        1308.50 ave        1516 max         992 min
Histogram: 1 0 1 0 0 0 1 0 1 2
Neighs:        15034.0 ave       19900 max       11404 min
Histogram: 2 0 0 1 0 1 1 0 0 1

Total # of neighbors = 90204
Ave neighs/atom = 14.530284
Ave special neighs/atom = 1.9793814
Neighbor list builds = 347
Dangerous builds = 0

if "${myDensity} > 1.0" then "jump SELF break"

next a
jump SELF loop
variable a loop 1000
change_box all x scale 0.95 y scale 0.95 z scale 0.95 remap
Changing box ...
  orthogonal box = (361.67141 349.12780 349.12780) to (838.32859 850.87220 850.87220)
  orthogonal box = (361.67141 361.67141 349.12780) to (838.32859 838.32859 850.87220)
  orthogonal box = (361.67141 361.67141 361.67141) to (838.32859 838.32859 838.32859)
run 8000
Per MPI rank memory allocation (min/avg/max) = 11.77 | 11.81 | 11.86 Mbytes
Step PotEng Temp Press KinEng Lx Ly Lz Pzz S/CPU Density 
 1142001    3101.5605    377.05064    23.711475    6976.1486    476.65718    476.65718    476.65718    23.618671            0  0.010681049 
 1150001    1024.7926     380.1905  -0.25492237     7034.242    476.65718    476.65718    476.65718  -0.17512923    1752.5028  0.010681049 
Loop time of 4.56501 on 6 procs for 8000 steps with 6208 atoms

Performance: 1514.125 ns/day, 0.016 hours/ns, 1752.459 timesteps/s
99.7% CPU use with 6 MPI tasks x no OpenMP threads

MPI task timing breakdown:
Section |  min time  |  avg time  |  max time  |%varavg| %total
---------------------------------------------------------------
Pair    | 1.7019     | 2.4425     | 3.1994     |  30.5 | 53.50
Bond    | 0.065828   | 0.086506   | 0.10538    |   4.7 |  1.89
Neigh   | 0.34917    | 0.35118    | 0.35283    |   0.2 |  7.69
Comm    | 0.36438    | 1.2098     | 2.0481     |  49.2 | 26.50
Output  | 4.2915e-05 | 7.0492e-05 | 0.00016785 |   0.0 |  0.00
Modify  | 0.33165    | 0.436      | 0.5279     |  10.4 |  9.55
Other   |            | 0.03891    |            |       |  0.85

Nlocal:        1034.67 ave        1209 max         814 min
Histogram: 2 0 0 0 0 0 1 1 1 1
Nghost:        1397.17 ave        1799 max        1069 min
Histogram: 1 1 0 0 1 2 0 0 0 1
Neighs:        14871.7 ave       17300 max       11373 min
Histogram: 1 0 1 0 0 1 0 1 0 2

Total # of neighbors = 89230
Ave neighs/atom = 14.373389
Ave special neighs/atom = 1.9793814
Neighbor list builds = 353
Dangerous builds = 0

if "${myDensity} > 1.0" then "jump SELF break"

next a
jump SELF loop
variable a loop 1000
change_box all x scale 0.95 y scale 0.95 z scale 0.95 remap
Changing box ...
  orthogonal box = (373.58784 361.67141 361.67141) to (826.41216 838.32859 838.32859)
  orthogonal box = (373.58784 373.58784 361.67141) to (826.41216 826.41216 838.32859)
  orthogonal box = (373.58784 373.58784 373.58784) to (826.41216 826.41216 826.41216)
run 8000
Per MPI rank memory allocation (min/avg/max) = 11.77 | 11.81 | 11.86 Mbytes
Step PotEng Temp Press KinEng Lx Ly Lz Pzz S/CPU Density 
 1150001    3008.1896     380.1905    26.563676     7034.242    452.82432    452.82432    452.82432    26.185444            0   0.01245785 
 1158001    861.17291    378.86177   0.51851935    7009.6581    452.82432    452.82432    452.82432   0.29975266    1909.2983   0.01245785 
Loop time of 4.19014 on 6 procs for 8000 steps with 6208 atoms

Performance: 1649.586 ns/day, 0.015 hours/ns, 1909.243 timesteps/s
99.7% CPU use with 6 MPI tasks x no OpenMP threads

MPI task timing breakdown:
Section |  min time  |  avg time  |  max time  |%varavg| %total
---------------------------------------------------------------
Pair    | 1.9385     | 2.4856     | 2.8351     |  20.5 | 59.32
Bond    | 0.071724   | 0.086532   | 0.09811    |   3.6 |  2.07
Neigh   | 0.31601    | 0.3181     | 0.31987    |   0.2 |  7.59
Comm    | 0.42889    | 0.83116    | 1.4435     |  40.7 | 19.84
Output  | 4.5061e-05 | 7.1843e-05 | 0.00017309 |   0.0 |  0.00
Modify  | 0.36165    | 0.43619    | 0.49304    |   8.0 | 10.41
Other   |            | 0.03253    |            |       |  0.78

Nlocal:        1034.67 ave        1152 max         870 min
Histogram: 2 0 0 0 0 0 0 2 0 2
Nghost:        1545.83 ave        2122 max        1098 min
Histogram: 2 0 0 0 2 0 1 0 0 1
Neighs:        16500.8 ave       18484 max       13291 min
Histogram: 1 0 0 1 0 0 0 2 1 1

Total # of neighbors = 99005
Ave neighs/atom = 15.947970
Ave special neighs/atom = 1.9793814
Neighbor list builds = 353
Dangerous builds = 0

if "${myDensity} > 1.0" then "jump SELF break"

next a
jump SELF loop
variable a loop 1000
change_box all x scale 0.95 y scale 0.95 z scale 0.95 remap
Changing box ...
  orthogonal box = (384.90845 373.58784 373.58784) to (815.09155 826.41216 826.41216)
  orthogonal box = (384.90845 384.90845 373.58784) to (815.09155 815.09155 826.41216)
  orthogonal box = (384.90845 384.90845 384.90845) to (815.09155 815.09155 815.09155)
run 8000
Per MPI rank memory allocation (min/avg/max) = 11.77 | 11.82 | 11.86 Mbytes
Step PotEng Temp Press KinEng Lx Ly Lz Pzz S/CPU Density 
 1158001    3055.3555    378.86177    32.447806    7009.6581    430.18311    430.18311    430.18311    32.969442            0  0.014530223 
 1166001    882.94892      380.409  0.089930741    7038.2846    430.18311    430.18311    430.18311 0.0032889423    1770.5801  0.014530223 
Loop time of 4.5189 on 6 procs for 8000 steps with 6208 atoms

Performance: 1529.576 ns/day, 0.016 hours/ns, 1770.343 timesteps/s
99.7% CPU use with 6 MPI tasks x no OpenMP threads

MPI task timing breakdown:
Section |  min time  |  avg time  |  max time  |%varavg| %total
---------------------------------------------------------------
Pair    | 2.0794     | 2.6503     | 3.1499     |  23.3 | 58.65
Bond    | 0.07194    | 0.086584   | 0.099467   |   3.8 |  1.92
Neigh   | 0.33526    | 0.33847    | 0.34199    |   0.4 |  7.49
Comm    | 0.43822    | 0.97267    | 1.609      |  43.3 | 21.52
Output  | 3.8147e-05 | 0.00014846 | 0.00066018 |   0.0 |  0.00
Modify  | 0.36321    | 0.43635    | 0.49964    |   8.5 |  9.66
Other   |            | 0.03439    |            |       |  0.76

Nlocal:        1034.67 ave        1208 max         831 min
Histogram: 1 1 0 0 0 1 1 0 0 2
Nghost:        1615.67 ave        2203 max        1239 min
Histogram: 1 1 1 1 0 0 1 0 0 1
Neighs:        16549.8 ave       20221 max       12117 min
Histogram: 1 1 0 0 1 0 0 1 0 2

Total # of neighbors = 99299
Ave neighs/atom = 15.995329
Ave special neighs/atom = 1.9793814
Neighbor list builds = 349
Dangerous builds = 0

if "${myDensity} > 1.0" then "jump SELF break"

next a
jump SELF loop
variable a loop 1000
change_box all x scale 0.95 y scale 0.95 z scale 0.95 remap
Changing box ...
  orthogonal box = (395.66302 384.90845 384.90845) to (804.33698 815.09155 815.09155)
  orthogonal box = (395.66302 395.66302 384.90845) to (804.33698 804.33698 815.09155)
  orthogonal box = (395.66302 395.66302 395.66302) to (804.33698 804.33698 804.33698)
run 8000
Per MPI rank memory allocation (min/avg/max) = 11.78 | 11.82 | 11.86 Mbytes
Step PotEng Temp Press KinEng Lx Ly Lz Pzz S/CPU Density 
 1166001    2958.7658      380.409    36.877489    7038.2846    408.67395    408.67395    408.67395    36.893901            0  0.016947337 
 1174001    871.15952    373.03663  -0.23450305     6901.882    408.67395    408.67395    408.67395 -0.022920296    1750.2647  0.016947337 
Loop time of 4.57085 on 6 procs for 8000 steps with 6208 atoms

Performance: 1512.192 ns/day, 0.016 hours/ns, 1750.222 timesteps/s
99.7% CPU use with 6 MPI tasks x no OpenMP threads

MPI task timing breakdown:
Section |  min time  |  avg time  |  max time  |%varavg| %total
---------------------------------------------------------------
Pair    | 2.1789     | 2.7087     | 3.1014     |  18.0 | 59.26
Bond    | 0.068544   | 0.086804   | 0.10539    |   3.9 |  1.90
Neigh   | 0.35263    | 0.35545    | 0.35865    |   0.4 |  7.78
Comm    | 0.45056    | 0.94022    | 1.558      |  36.2 | 20.57
Output  | 3.6955e-05 | 6.636e-05  | 0.00016618 |   0.0 |  0.00
Modify  | 0.34305    | 0.4365     | 0.54346    |   9.4 |  9.55
Other   |            | 0.04313    |            |       |  0.94

Nlocal:        1034.67 ave        1229 max         823 min
Histogram: 1 0 1 0 0 1 2 0 0 1
Nghost:        1693.67 ave        2156 max        1368 min
Histogram: 2 1 0 0 0 1 1 0 0 1
Neighs:        17464.8 ave       19498 max       15238 min
Histogram: 1 0 0 2 0 1 0 0 1 1

Total # of neighbors = 104789
Ave neighs/atom = 16.879671
Ave special neighs/atom = 1.9793814
Neighbor list builds = 344
Dangerous builds = 0

if "${myDensity} > 1.0" then "jump SELF break"

next a
jump SELF loop
variable a loop 1000
change_box all x scale 0.95 y scale 0.95 z scale 0.95 remap
Changing box ...
  orthogonal box = (405.87987 395.66302 395.66302) to (794.12013 804.33698 804.33698)
  orthogonal box = (405.87987 405.87987 395.66302) to (794.12013 794.12013 804.33698)
  orthogonal box = (405.87987 405.87987 405.87987) to (794.12013 794.12013 794.12013)
run 8000
Per MPI rank memory allocation (min/avg/max) = 11.78 | 11.82 | 11.86 Mbytes
Step PotEng Temp Press KinEng Lx Ly Lz Pzz S/CPU Density 
 1174001    2923.0857    373.03663    42.866308     6901.882    388.24025    388.24025    388.24025    42.464576            0   0.01976654 
 1182001    944.95418    375.08308   0.20856612    6939.7451    388.24025    388.24025    388.24025  -0.82376507    1679.3549   0.01976654 
Loop time of 4.76385 on 6 procs for 8000 steps with 6208 atoms

Performance: 1450.928 ns/day, 0.017 hours/ns, 1679.314 timesteps/s
99.7% CPU use with 6 MPI tasks x no OpenMP threads

MPI task timing breakdown:
Section |  min time  |  avg time  |  max time  |%varavg| %total
---------------------------------------------------------------
Pair    | 1.873      | 2.6822     | 3.2599     |  26.3 | 56.30
Bond    | 0.062673   | 0.086943   | 0.10276    |   4.4 |  1.83
Neigh   | 0.3637     | 0.3684     | 0.3725     |   0.5 |  7.73
Comm    | 0.48979    | 1.1477     | 2.0766     |  46.2 | 24.09
Output  | 3.8862e-05 | 7.0731e-05 | 0.00017595 |   0.0 |  0.00
Modify  | 0.31131    | 0.43666    | 0.52944    |  10.6 |  9.17
Other   |            | 0.04189    |            |       |  0.88

Nlocal:        1034.67 ave        1247 max         718 min
Histogram: 1 0 0 1 0 0 2 0 0 2
Nghost:        1802.50 ave        2045 max        1502 min
Histogram: 1 1 0 1 0 0 0 0 1 2
Neighs:        16641.0 ave       21767 max       11459 min
Histogram: 1 0 0 1 1 1 0 1 0 1

Total # of neighbors = 99846
Ave neighs/atom = 16.083441
Ave special neighs/atom = 1.9793814
Neighbor list builds = 351
Dangerous builds = 0

if "${myDensity} > 1.0" then "jump SELF break"

next a
jump SELF loop
variable a loop 1000
change_box all x scale 0.95 y scale 0.95 z scale 0.95 remap
Changing box ...
  orthogonal box = (415.58588 405.87987 405.87987) to (784.41412 794.12013 794.12013)
  orthogonal box = (415.58588 415.58588 405.87987) to (784.41412 784.41412 794.12013)
  orthogonal box = (415.58588 415.58588 415.58588) to (784.41412 784.41412 784.41412)
run 8000
Per MPI rank memory allocation (min/avg/max) = 11.78 | 11.82 | 11.86 Mbytes
Step PotEng Temp Press KinEng Lx Ly Lz Pzz S/CPU Density 
 1182001    3041.0727    375.08308    50.343303    6939.7451    368.82824    368.82824    368.82824    48.141943            0  0.023054719 
 1190001    960.12688    380.17014   0.38511102    7033.8654    368.82824    368.82824    368.82824    0.6000998    1588.5993  0.023054719 
Loop time of 5.036 on 6 procs for 8000 steps with 6208 atoms

Performance: 1372.518 ns/day, 0.017 hours/ns, 1588.563 timesteps/s
99.6% CPU use with 6 MPI tasks x no OpenMP threads

MPI task timing breakdown:
Section |  min time  |  avg time  |  max time  |%varavg| %total
---------------------------------------------------------------
Pair    | 1.6556     | 2.6358     | 3.4707     |  34.2 | 52.34
Bond    | 0.055358   | 0.08711    | 0.10659    |   5.6 |  1.73
Neigh   | 0.38869    | 0.39225    | 0.3962     |   0.4 |  7.79
Comm    | 0.50286    | 1.4381     | 2.5777     |  53.2 | 28.56
Output  | 3.7909e-05 | 7.0612e-05 | 0.0001781  |   0.0 |  0.00
Modify  | 0.27477    | 0.43706    | 0.54797    |  13.1 |  8.68
Other   |            | 0.04555    |            |       |  0.90

Nlocal:        1034.67 ave        1252 max         657 min
Histogram: 1 0 0 0 0 1 1 1 0 2
Nghost:        1973.67 ave        2380 max        1708 min
Histogram: 1 1 1 0 2 0 0 0 0 1
Neighs:        16457.7 ave       20858 max       11079 min
Histogram: 1 0 1 0 0 2 0 0 0 2

Total # of neighbors = 98746
Ave neighs/atom = 15.906250
Ave special neighs/atom = 1.9793814
Neighbor list builds = 341
Dangerous builds = 0

if "${myDensity} > 1.0" then "jump SELF break"

next a
jump SELF loop
variable a loop 1000
change_box all x scale 0.95 y scale 0.95 z scale 0.95 remap
Changing box ...
  orthogonal box = (424.80659 415.58588 415.58588) to (775.19341 784.41412 784.41412)
  orthogonal box = (424.80659 424.80659 415.58588) to (775.19341 775.19341 784.41412)
  orthogonal box = (424.80659 424.80659 424.80659) to (775.19341 775.19341 775.19341)
run 8000
Per MPI rank memory allocation (min/avg/max) = 11.78 | 11.82 | 11.86 Mbytes
Step PotEng Temp Press KinEng Lx Ly Lz Pzz S/CPU Density 
 1190001    3088.5057    380.17014    59.380178    7033.8654    350.38683    350.38683    350.38683    59.452627            0  0.026889889 
 1198001    899.83282    375.29513    0.1248279    6943.6684    350.38683    350.38683    350.38683   0.91436409    1584.3987  0.026889889 
Loop time of 5.0501 on 6 procs for 8000 steps with 6208 atoms

Performance: 1368.686 ns/day, 0.018 hours/ns, 1584.127 timesteps/s
99.7% CPU use with 6 MPI tasks x no OpenMP threads

MPI task timing breakdown:
Section |  min time  |  avg time  |  max time  |%varavg| %total
---------------------------------------------------------------
Pair    | 1.7414     | 2.6963     | 3.4268     |  35.4 | 53.39
Bond    | 0.057772   | 0.087048   | 0.10441    |   5.3 |  1.72
Neigh   | 0.41492    | 0.41773    | 0.42131    |   0.4 |  8.27
Comm    | 0.55499    | 1.3689     | 2.4693     |  56.4 | 27.11
Output  | 3.7909e-05 | 0.00019209 | 0.00092697 |   0.0 |  0.00
Modify  | 0.28648    | 0.43653    | 0.53039    |  12.5 |  8.64
Other   |            | 0.04342    |            |       |  0.86

Nlocal:        1034.67 ave        1237 max         660 min
Histogram: 1 0 0 0 1 0 1 0 1 2
Nghost:        2112.33 ave        2509 max        1808 min
Histogram: 1 0 2 1 0 0 1 0 0 1
Neighs:        17945.2 ave       23126 max       10477 min
Histogram: 1 0 0 0 1 1 1 0 1 1

Total # of neighbors = 107671
Ave neighs/atom = 17.343911
Ave special neighs/atom = 1.9793814
Neighbor list builds = 352
Dangerous builds = 0

if "${myDensity} > 1.0" then "jump SELF break"

next a
jump SELF loop
variable a loop 1000
change_box all x scale 0.95 y scale 0.95 z scale 0.95 remap
Changing box ...
  orthogonal box = (433.56626 424.80659 424.80659) to (766.43374 775.19341 775.19341)
  orthogonal box = (433.56626 433.56626 424.80659) to (766.43374 766.43374 775.19341)
  orthogonal box = (433.56626 433.56626 433.56626) to (766.43374 766.43374 766.43374)
run 8000
Per MPI rank memory allocation (min/avg/max) = 11.78 | 11.82 | 11.86 Mbytes
Step PotEng Temp Press KinEng Lx Ly Lz Pzz S/CPU Density 
 1198001    3006.8641    375.29513    68.911251    6943.6684    332.86749    332.86749    332.86749    71.150087            0  0.031363043 
 1206001     885.9613    381.48084   0.38165964    7058.1157    332.86749    332.86749    332.86749   0.22788586    1488.2145  0.031363043 
Loop time of 5.37569 on 6 procs for 8000 steps with 6208 atoms

Performance: 1285.787 ns/day, 0.019 hours/ns, 1488.180 timesteps/s
99.7% CPU use with 6 MPI tasks x no OpenMP threads

MPI task timing breakdown:
Section |  min time  |  avg time  |  max time  |%varavg| %total
---------------------------------------------------------------
Pair    | 1.6574     | 2.9205     | 3.7563     |  40.2 | 54.33
Bond    | 0.05627    | 0.086847   | 0.10578    |   5.3 |  1.62
Neigh   | 0.42966    | 0.43294    | 0.43642    |   0.3 |  8.05
Comm    | 0.52097    | 1.4552     | 2.8672     |  63.1 | 27.07
Output  | 0.0023839  | 0.0025927  | 0.002912   |   0.3 |  0.05
Modify  | 0.28067    | 0.43592    | 0.53073    |  12.1 |  8.11
Other   |            | 0.04174    |            |       |  0.78

Nlocal:        1034.67 ave        1301 max         606 min
Histogram: 1 0 0 0 0 1 2 0 1 1
Nghost:        2316.00 ave        2861 max        2014 min
Histogram: 3 1 0 0 0 0 0 0 1 1
Neighs:        18640.7 ave       23265 max        9280 min
Histogram: 1 0 0 0 0 1 0 1 1 2

Total # of neighbors = 111844
Ave neighs/atom = 18.016108
Ave special neighs/atom = 1.9793814
Neighbor list builds = 352
Dangerous builds = 0

if "${myDensity} > 1.0" then "jump SELF break"

next a
jump SELF loop
variable a loop 1000
change_box all x scale 0.95 y scale 0.95 z scale 0.95 remap
Changing box ...
  orthogonal box = (441.88794 433.56626 433.56626) to (758.11206 766.43374 766.43374)
  orthogonal box = (441.88794 441.88794 433.56626) to (758.11206 758.11206 766.43374)
  orthogonal box = (441.88794 441.88794 441.88794) to (758.11206 758.11206 758.11206)
run 8000
Per MPI rank memory allocation (min/avg/max) = 11.78 | 11.83 | 11.86 Mbytes
Step PotEng Temp Press KinEng Lx Ly Lz Pzz S/CPU Density 
 1206001    2987.9471    381.48084    80.286511    7058.1157    316.22411    316.22411    316.22411    81.972632            0   0.03658031 
 1214001     811.1858    379.48965    1.1752641     7021.275    316.22411    316.22411    316.22411    1.5250829    1432.2575   0.03658031 
Loop time of 5.58646 on 6 procs for 8000 steps with 6208 atoms

Performance: 1237.277 ns/day, 0.019 hours/ns, 1432.034 timesteps/s
99.7% CPU use with 6 MPI tasks x no OpenMP threads

MPI task timing breakdown:
Section |  min time  |  avg time  |  max time  |%varavg| %total
---------------------------------------------------------------
Pair    | 1.6531     | 3.1118     | 3.9272     |  41.4 | 55.70
Bond    | 0.052308   | 0.087213   | 0.10584    |   5.9 |  1.56
Neigh   | 0.4879     | 0.49113    | 0.49487    |   0.4 |  8.79
Comm    | 0.51009    | 1.42       | 3.0486     |  68.4 | 25.42
Output  | 3.8147e-05 | 0.00019356 | 0.00093198 |   0.0 |  0.00
Modify  | 0.25973    | 0.43654    | 0.52907    |  13.5 |  7.81
Other   |            | 0.03954    |            |       |  0.71

Nlocal:        1034.67 ave        1275 max         667 min
Histogram: 1 0 0 0 1 0 1 1 1 1
Nghost:        2540.50 ave        3052 max        2236 min
Histogram: 1 0 2 1 1 0 0 0 0 1
Neighs:        20366.7 ave       27093 max       12392 min
Histogram: 1 0 0 1 0 1 2 0 0 1

Total # of neighbors = 122200
Ave neighs/atom = 19.684278
Ave special neighs/atom = 1.9793814
Neighbor list builds = 354
Dangerous builds = 0

if "${myDensity} > 1.0" then "jump SELF break"

next a
jump SELF loop
variable a loop 1000
change_box all x scale 0.95 y scale 0.95 z scale 0.95 remap
Changing box ...
  orthogonal box = (449.79355 441.88794 441.88794) to (750.20645 758.11206 758.11206)
  orthogonal box = (449.79355 449.79355 441.88794) to (750.20645 750.20645 758.11206)
  orthogonal box = (449.79355 449.79355 449.79355) to (750.20645 750.20645 750.20645)
run 8000
Per MPI rank memory allocation (min/avg/max) = 11.79 | 11.83 | 11.87 Mbytes
Step PotEng Temp Press KinEng Lx Ly Lz Pzz S/CPU Density 
 1214001    2981.6029    379.48965    94.965883     7021.275    300.41291    300.41291    300.41291    97.976342            0  0.042665473 
 1222001    924.76218    374.08928  -0.78149325    6921.3579    300.41291    300.41291    300.41291    0.1070754    1253.0834  0.042665473 
Loop time of 6.38438 on 6 procs for 8000 steps with 6208 atoms

Performance: 1082.643 ns/day, 0.022 hours/ns, 1253.059 timesteps/s
99.7% CPU use with 6 MPI tasks x no OpenMP threads

MPI task timing breakdown:
Section |  min time  |  avg time  |  max time  |%varavg| %total
---------------------------------------------------------------
Pair    | 2.0042     | 3.2188     | 4.6462     |  46.8 | 50.42
Bond    | 0.061548   | 0.087156   | 0.10927    |   5.4 |  1.37
Neigh   | 0.53975    | 0.54415    | 0.54936    |   0.5 |  8.52
Comm    | 0.51662    | 2.0562     | 3.3931     |  63.8 | 32.21
Output  | 3.9101e-05 | 7.0969e-05 | 0.00018096 |   0.0 |  0.00
Modify  | 0.30681    | 0.4361     | 0.54569    |  12.2 |  6.83
Other   |            | 0.04188    |            |       |  0.66

Nlocal:        1034.67 ave        1308 max         798 min
Histogram: 1 1 0 1 0 0 2 0 0 1
Nghost:        2668.17 ave        3260 max        2281 min
Histogram: 1 1 1 1 0 1 0 0 0 1
Neighs:        20898.5 ave       31433 max       14287 min
Histogram: 2 1 0 0 0 2 0 0 0 1

Total # of neighbors = 125391
Ave neighs/atom = 20.198293
Ave special neighs/atom = 1.9793814
Neighbor list builds = 352
Dangerous builds = 0

if "${myDensity} > 1.0" then "jump SELF break"

next a
jump SELF loop
variable a loop 1000
change_box all x scale 0.95 y scale 0.95 z scale 0.95 remap
Changing box ...
  orthogonal box = (457.30387 449.79355 449.79355) to (742.69613 750.20645 750.20645)
  orthogonal box = (457.30387 457.30387 449.79355) to (742.69613 742.69613 750.20645)
  orthogonal box = (457.30387 457.30387 457.30387) to (742.69613 742.69613 742.69613)
run 8000
Per MPI rank memory allocation (min/avg/max) = 11.79 | 11.83 | 11.87 Mbytes
Step PotEng Temp Press KinEng Lx Ly Lz Pzz S/CPU Density 
 1222001    3001.3737    374.08928    109.35969    6921.3579    285.39226    285.39226    285.39226    109.69456            0  0.049762908 
 1230001    843.30053    373.58222  -0.62408696    6911.9765    285.39226    285.39226    285.39226  -0.15998879    1214.3891  0.049762908 
Loop time of 6.58779 on 6 procs for 8000 steps with 6208 atoms

Performance: 1049.214 ns/day, 0.023 hours/ns, 1214.368 timesteps/s
99.7% CPU use with 6 MPI tasks x no OpenMP threads

MPI task timing breakdown:
Section |  min time  |  avg time  |  max time  |%varavg| %total
---------------------------------------------------------------
Pair    | 2.4998     | 3.2111     | 4.7732     |  44.2 | 48.74
Bond    | 0.071885   | 0.087309   | 0.11167    |   4.7 |  1.33
Neigh   | 0.56438    | 0.56994    | 0.57792    |   0.6 |  8.65
Comm    | 0.55348    | 2.2388     | 3.0213     |  57.3 | 33.98
Output  | 4.0054e-05 | 6.9698e-05 | 0.0001688  |   0.0 |  0.00
Modify  | 0.35658    | 0.43566    | 0.55635    |  10.7 |  6.61
Other   |            | 0.04488    |            |       |  0.68

Nlocal:        1034.67 ave        1279 max         823 min
Histogram: 1 1 0 1 0 1 0 0 1 1
Nghost:        2826.33 ave        3464 max        2463 min
Histogram: 2 0 0 2 1 0 0 0 0 1
Neighs:        20619.0 ave       29291 max       15416 min
Histogram: 1 1 1 1 0 1 0 0 0 1

Total # of neighbors = 123714
Ave neighs/atom = 19.928157
Ave special neighs/atom = 1.9793814
Neighbor list builds = 345
Dangerous builds = 0

if "${myDensity} > 1.0" then "jump SELF break"

next a
jump SELF loop
variable a loop 1000
change_box all x scale 0.95 y scale 0.95 z scale 0.95 remap
Changing box ...
  orthogonal box = (464.43868 457.30387 457.30387) to (735.56132 742.69613 742.69613)
  orthogonal box = (464.43868 464.43868 457.30387) to (735.56132 735.56132 742.69613)
  orthogonal box = (464.43868 464.43868 464.43868) to (735.56132 735.56132 735.56132)
run 8000
Per MPI rank memory allocation (min/avg/max) = 11.79 | 11.84 | 11.88 Mbytes
Step PotEng Temp Press KinEng Lx Ly Lz Pzz S/CPU Density 
 1230001    2895.1493    373.58222    125.85484    6911.9765    271.12265    271.12265    271.12265    125.03122            0  0.058041006 
 1238001    753.15627    375.68686    2.5654268    6950.9163    271.12265    271.12265    271.12265    2.4957042    1224.4064  0.058041006 
Loop time of 6.53444 on 6 procs for 8000 steps with 6208 atoms

Performance: 1057.780 ns/day, 0.023 hours/ns, 1224.282 timesteps/s
99.6% CPU use with 6 MPI tasks x no OpenMP threads

MPI task timing breakdown:
Section |  min time  |  avg time  |  max time  |%varavg| %total
---------------------------------------------------------------
Pair    | 2.6832     | 3.3583     | 4.6604     |  36.7 | 51.39
Bond    | 0.066676   | 0.087531   | 0.10666    |   4.9 |  1.34
Neigh   | 0.57875    | 0.58369    | 0.59153    |   0.6 |  8.93
Comm    | 0.63061    | 2.0254     | 2.727      |  51.4 | 31.00
Output  | 4.1008e-05 | 0.00016336 | 0.00071979 |   0.0 |  0.00
Modify  | 0.33302    | 0.43644    | 0.5291     |  11.1 |  6.68
Other   |            | 0.04294    |            |       |  0.66

Nlocal:        1034.67 ave        1280 max         753 min
Histogram: 1 0 1 0 0 0 2 1 0 1
Nghost:        3076.50 ave        3464 max        2731 min
Histogram: 2 0 0 0 1 1 0 1 0 1
Neighs:        22505.3 ave       32244 max       17637 min
Histogram: 1 2 1 0 1 0 0 0 0 1

Total # of neighbors = 135032
Ave neighs/atom = 21.751289
Ave special neighs/atom = 1.9793814
Neighbor list builds = 350
Dangerous builds = 0

if "${myDensity} > 1.0" then "jump SELF break"

next a
jump SELF loop
variable a loop 1000
change_box all x scale 0.95 y scale 0.95 z scale 0.95 remap
Changing box ...
  orthogonal box = (471.21674 464.43868 464.43868) to (728.78326 735.56132 735.56132)
  orthogonal box = (471.21674 471.21674 464.43868) to (728.78326 728.78326 735.56132)
  orthogonal box = (471.21674 471.21674 471.21674) to (728.78326 728.78326 728.78326)
run 8000
Per MPI rank memory allocation (min/avg/max) = 11.80 | 11.84 | 11.88 Mbytes
Step PotEng Temp Press KinEng Lx Ly Lz Pzz S/CPU Density 
 1238001    2974.3641    375.68686    152.25455    6950.9163    257.56652    257.56652    257.56652    151.99091            0  0.067696173 
 1246001    639.60731    376.12543   -1.5295749    6959.0305    257.56652    257.56652    257.56652    1.4995307    1128.6933  0.067696173 
Loop time of 7.08798 on 6 procs for 8000 steps with 6208 atoms

Performance: 975.172 ns/day, 0.025 hours/ns, 1128.671 timesteps/s
99.6% CPU use with 6 MPI tasks x no OpenMP threads

MPI task timing breakdown:
Section |  min time  |  avg time  |  max time  |%varavg| %total
---------------------------------------------------------------
Pair    | 2.6157     | 3.6704     | 5.072      |  42.1 | 51.78
Bond    | 0.066655   | 0.087477   | 0.11048    |   4.9 |  1.23
Neigh   | 0.63271    | 0.63874    | 0.64597    |   0.6 |  9.01
Comm    | 0.69621    | 2.2066     | 3.3596     |  58.7 | 31.13
Output  | 4.5061e-05 | 8.0228e-05 | 0.00020313 |   0.0 |  0.00
Modify  | 0.33223    | 0.4369     | 0.54979    |  11.1 |  6.16
Other   |            | 0.04777    |            |       |  0.67

Nlocal:        1034.67 ave        1334 max         728 min
Histogram: 1 0 0 1 0 3 0 0 0 1
Nghost:        3169.50 ave        3487 max        2887 min
Histogram: 2 0 0 0 1 1 0 1 0 1
Neighs:        24766.3 ave       34003 max       16410 min
Histogram: 1 0 0 1 2 0 1 0 0 1

Total # of neighbors = 148598
Ave neighs/atom = 23.936534
Ave special neighs/atom = 1.9793814
Neighbor list builds = 347
Dangerous builds = 0

if "${myDensity} > 1.0" then "jump SELF break"

next a
jump SELF loop
variable a loop 1000
change_box all x scale 0.95 y scale 0.95 z scale 0.95 remap
Changing box ...
  orthogonal box = (477.65590 471.21674 471.21674) to (722.34410 728.78326 728.78326)
  orthogonal box = (477.65590 477.65590 471.21674) to (722.34410 722.34410 728.78326)
  orthogonal box = (477.65590 477.65590 477.65590) to (722.34410 722.34410 722.34410)
run 8000
Per MPI rank memory allocation (min/avg/max) = 11.80 | 11.84 | 11.88 Mbytes
Step PotEng Temp Press KinEng Lx Ly Lz Pzz S/CPU Density 
 1246001    2676.8059    376.12543    171.61878    6959.0305    244.68819    244.68819    244.68819    174.83537            0  0.078957484 
 1254001    580.43756    373.12108   -1.6715031    6903.4444    244.68819    244.68819    244.68819   -2.9939629    1018.3491  0.078957484 
Loop time of 7.85598 on 6 procs for 8000 steps with 6208 atoms

Performance: 879.839 ns/day, 0.027 hours/ns, 1018.333 timesteps/s
99.6% CPU use with 6 MPI tasks x no OpenMP threads

MPI task timing breakdown:
Section |  min time  |  avg time  |  max time  |%varavg| %total
---------------------------------------------------------------
Pair    | 2.8373     | 3.9122     | 5.7057     |  47.9 | 49.80
Bond    | 0.067072   | 0.087888   | 0.11698    |   5.5 |  1.12
Neigh   | 0.70622    | 0.70872    | 0.71471    |   0.4 |  9.02
Comm    | 0.7225     | 2.6561     | 3.8253     |  62.8 | 33.81
Output  | 4.1008e-05 | 8.0824e-05 | 0.00019097 |   0.0 |  0.00
Modify  | 0.33283    | 0.43656    | 0.57715    |  12.3 |  5.56
Other   |            | 0.05441    |            |       |  0.69

Nlocal:        1034.67 ave        1430 max         686 min
Histogram: 1 0 1 0 2 0 1 0 0 1
Nghost:        3485.83 ave        3806 max        3023 min
Histogram: 1 0 0 1 0 0 1 2 0 1
Neighs:        25252.0 ave       39505 max       13544 min
Histogram: 1 0 1 0 2 1 0 0 0 1

Total # of neighbors = 151512
Ave neighs/atom = 24.405928
Ave special neighs/atom = 1.9793814
Neighbor list builds = 333
Dangerous builds = 0

if "${myDensity} > 1.0" then "jump SELF break"

next a
jump SELF loop
variable a loop 1000
change_box all x scale 0.95 y scale 0.95 z scale 0.95 remap
Changing box ...
  orthogonal box = (483.77311 477.65590 477.65590) to (716.22689 722.34410 722.34410)
  orthogonal box = (483.77311 483.77311 477.65590) to (716.22689 716.22689 722.34410)
  orthogonal box = (483.77311 483.77311 483.77311) to (716.22689 716.22689 716.22689)
run 8000
Per MPI rank memory allocation (min/avg/max) = 11.80 | 11.84 | 11.89 Mbytes
Step PotEng Temp Press KinEng Lx Ly Lz Pzz S/CPU Density 
 1254001    2645.7273    373.12108    201.78965    6903.4444    232.45378    232.45378    232.45378    202.35329            0  0.092092123 
 1262001    596.36753    375.93102   -1.7916339    6955.4337    232.45378    232.45378    232.45378   -2.1555258    908.67055  0.092092123 
Loop time of 8.80418 on 6 procs for 8000 steps with 6208 atoms

Performance: 785.082 ns/day, 0.031 hours/ns, 908.659 timesteps/s
99.6% CPU use with 6 MPI tasks x no OpenMP threads

MPI task timing breakdown:
Section |  min time  |  avg time  |  max time  |%varavg| %total
---------------------------------------------------------------
Pair    | 2.2911     | 4.0509     | 6.4004     |  61.1 | 46.01
Bond    | 0.058901   | 0.088006   | 0.12291    |   6.6 |  1.00
Neigh   | 0.83005    | 0.83326    | 0.83867    |   0.3 |  9.46
Comm    | 0.81171    | 3.3307     | 5.2217     |  72.2 | 37.83
Output  | 4.1008e-05 | 9.346e-05  | 0.00019503 |   0.0 |  0.00
Modify  | 0.29457    | 0.43662    | 0.6073     |  14.5 |  4.96
Other   |            | 0.06463    |            |       |  0.73

Nlocal:        1034.67 ave        1499 max         760 min
Histogram: 1 1 0 3 0 0 0 0 0 1
Nghost:        3823.50 ave        4155 max        3133 min
Histogram: 1 0 1 0 0 0 0 0 0 4
Neighs:        26806.5 ave       43687 max       16263 min
Histogram: 1 1 1 0 2 0 0 0 0 1

Total # of neighbors = 160839
Ave neighs/atom = 25.908344
Ave special neighs/atom = 1.9793814
Neighbor list builds = 350
Dangerous builds = 0

if "${myDensity} > 1.0" then "jump SELF break"

next a
jump SELF loop
variable a loop 1000
change_box all x scale 0.95 y scale 0.95 z scale 0.95 remap
Changing box ...
  orthogonal box = (489.58445 483.77311 483.77311) to (710.41555 716.22689 716.22689)
  orthogonal box = (489.58445 489.58445 483.77311) to (710.41555 710.41555 716.22689)
  orthogonal box = (489.58445 489.58445 489.58445) to (710.41555 710.41555 710.41555)
run 8000
Per MPI rank memory allocation (min/avg/max) = 11.80 | 11.85 | 11.89 Mbytes
Step PotEng Temp Press KinEng Lx Ly Lz Pzz S/CPU Density 
 1262001    2661.4355    375.93102    235.62057    6955.4337    220.83109    220.83109    220.83109    234.52802            0   0.10741172 
 1270001    589.31206    377.51121    1.6059191    6984.6701    220.83109    220.83109    220.83109   0.59318378    865.95446   0.10741172 
Loop time of 9.23926 on 6 procs for 8000 steps with 6208 atoms

Performance: 748.112 ns/day, 0.032 hours/ns, 865.870 timesteps/s
99.5% CPU use with 6 MPI tasks x no OpenMP threads

MPI task timing breakdown:
Section |  min time  |  avg time  |  max time  |%varavg| %total
---------------------------------------------------------------
Pair    | 2.8226     | 4.2336     | 6.6807     |  63.2 | 45.82
Bond    | 0.067692   | 0.088692   | 0.12299    |   6.0 |  0.96
Neigh   | 0.88752    | 0.89161    | 0.89659    |   0.4 |  9.65
Comm    | 0.90993    | 3.5191     | 5.0156     |  73.5 | 38.09
Output  | 4.4107e-05 | 0.00022455 | 0.00097895 |   0.0 |  0.00
Modify  | 0.33616    | 0.43733    | 0.60356    |  12.9 |  4.73
Other   |            | 0.06867    |            |       |  0.74

Nlocal:        1034.67 ave        1552 max         820 min
Histogram: 2 1 1 1 0 0 0 0 0 1
Nghost:        4071.17 ave        4570 max        3512 min
Histogram: 2 0 0 0 0 1 0 1 1 1
Neighs:        27935.7 ave       50181 max       18983 min
Histogram: 2 2 0 0 1 0 0 0 0 1

Total # of neighbors = 167614
Ave neighs/atom = 26.999678
Ave special neighs/atom = 1.9793814
Neighbor list builds = 351
Dangerous builds = 0

if "${myDensity} > 1.0" then "jump SELF break"

next a
jump SELF loop
variable a loop 1000
change_box all x scale 0.95 y scale 0.95 z scale 0.95 remap
Changing box ...
  orthogonal box = (495.10523 489.58445 489.58445) to (704.89477 710.41555 710.41555)
  orthogonal box = (495.10523 495.10523 489.58445) to (704.89477 704.89477 710.41555)
  orthogonal box = (495.10523 495.10523 495.10523) to (704.89477 704.89477 704.89477)
run 8000
Per MPI rank memory allocation (min/avg/max) = 11.81 | 11.85 | 11.89 Mbytes
Step PotEng Temp Press KinEng Lx Ly Lz Pzz S/CPU Density 
 1270001    2758.3926    377.51121     281.6126    6984.6701    209.78954    209.78954    209.78954    276.34426            0   0.12527974 
 1278001    685.51746     374.4531   -1.3288968    6928.0892    209.78954    209.78954    209.78954    1.1790218    733.65418   0.12527974 
Loop time of 10.9044 on 6 procs for 8000 steps with 6208 atoms

Performance: 633.871 ns/day, 0.038 hours/ns, 733.647 timesteps/s
99.6% CPU use with 6 MPI tasks x no OpenMP threads

MPI task timing breakdown:
Section |  min time  |  avg time  |  max time  |%varavg| %total
---------------------------------------------------------------
Pair    | 3.2892     | 4.5185     | 8.0078     |  77.4 | 41.44
Bond    | 0.071881   | 0.088666   | 0.13525    |   7.4 |  0.81
Neigh   | 1.0857     | 1.0887     | 1.0944     |   0.3 |  9.98
Comm    | 0.97905    | 4.6897     | 5.9869     |  80.7 | 43.01
Output  | 4.2915e-05 | 9.8944e-05 | 0.00020504 |   0.0 |  0.00
Modify  | 0.35658    | 0.43662    | 0.66064    |  15.9 |  4.00
Other   |            | 0.08213    |            |       |  0.75

Nlocal:        1034.67 ave        1645 max         818 min
Histogram: 3 1 1 0 0 0 0 0 0 1
Nghost:        4303.00 ave        5035 max        3919 min
Histogram: 2 1 1 0 0 1 0 0 0 1
Neighs:        28775.8 ave       54800 max       22329 min
Histogram: 4 1 0 0 0 0 0 0 0 1

Total # of neighbors = 172655
Ave neighs/atom = 27.811695
Ave special neighs/atom = 1.9793814
Neighbor list builds = 351
Dangerous builds = 0

if "${myDensity} > 1.0" then "jump SELF break"

next a
jump SELF loop
variable a loop 1000
change_box all x scale 0.95 y scale 0.95 z scale 0.95 remap
Changing box ...
  orthogonal box = (500.34997 495.10523 495.10523) to (699.65003 704.89477 704.89477)
  orthogonal box = (500.34997 500.34997 495.10523) to (699.65003 699.65003 704.89477)
  orthogonal box = (500.34997 500.34997 500.34997) to (699.65003 699.65003 699.65003)
run 8000
Per MPI rank memory allocation (min/avg/max) = 11.81 | 11.85 | 11.90 Mbytes
Step PotEng Temp Press KinEng Lx Ly Lz Pzz S/CPU Density 
 1278001    2783.0422     374.4531    322.69127    6928.0892    199.30006    199.30006    199.30006    324.11036            0   0.14612013 
 1286001    651.22143    375.60045   -1.2729728    6949.3175    199.30006    199.30006    199.30006   -2.2070102    762.77374   0.14612013 
Loop time of 10.489 on 6 procs for 8000 steps with 6208 atoms

Performance: 658.974 ns/day, 0.036 hours/ns, 762.701 timesteps/s
99.6% CPU use with 6 MPI tasks x no OpenMP threads

MPI task timing breakdown:
Section |  min time  |  avg time  |  max time  |%varavg| %total
---------------------------------------------------------------
Pair    | 3.4062     | 4.4756     | 7.5918     |  67.1 | 42.67
Bond    | 0.073065   | 0.088913   | 0.13155    |   6.7 |  0.85
Neigh   | 1.0781     | 1.0813     | 1.0852     |   0.3 | 10.31
Comm    | 1.0081     | 4.3261     | 5.4774     |  72.8 | 41.24
Output  | 4.2915e-05 | 0.00023365 | 0.001065   |   0.0 |  0.00
Modify  | 0.35993    | 0.43692    | 0.64312    |  14.6 |  4.17
Other   |            | 0.08001    |            |       |  0.76

Nlocal:        1034.67 ave        1448 max         780 min
Histogram: 1 1 2 0 0 0 1 0 0 1
Nghost:        4537.33 ave        4922 max        4257 min
Histogram: 1 1 2 0 0 0 0 0 0 2
Neighs:        28583.7 ave       45098 max       18607 min
Histogram: 1 0 2 1 1 0 0 0 0 1

Total # of neighbors = 171502
Ave neighs/atom = 27.625966
Ave special neighs/atom = 1.9793814
Neighbor list builds = 348
Dangerous builds = 0

if "${myDensity} > 1.0" then "jump SELF break"

next a
jump SELF loop
variable a loop 1000
change_box all x scale 0.95 y scale 0.95 z scale 0.95 remap
Changing box ...
  orthogonal box = (505.33247 500.34997 500.34997) to (694.66753 699.65003 699.65003)
  orthogonal box = (505.33247 505.33247 500.34997) to (694.66753 694.66753 699.65003)
  orthogonal box = (505.33247 505.33247 505.33247) to (694.66753 694.66753 694.66753)
run 8000
Per MPI rank memory allocation (min/avg/max) = 11.82 | 11.86 | 11.90 Mbytes
Step PotEng Temp Press KinEng Lx Ly Lz Pzz S/CPU Density 
 1286001    2720.6621    375.60045    372.15942    6949.3175    189.33506    189.33506    189.33506    364.35904            0   0.17042732 
 1294001    642.40001    381.48186   -1.5831924    7058.1346    189.33506    189.33506    189.33506    6.4662149    878.14076   0.17042732 
Loop time of 9.11271 on 6 procs for 8000 steps with 6208 atoms

Performance: 758.501 ns/day, 0.032 hours/ns, 877.894 timesteps/s
99.5% CPU use with 6 MPI tasks x no OpenMP threads

MPI task timing breakdown:
Section |  min time  |  avg time  |  max time  |%varavg| %total
---------------------------------------------------------------
Pair    | 2.942      | 4.6012     | 6.3305     |  53.8 | 50.49
Bond    | 0.064247   | 0.089351   | 0.11774    |   6.5 |  0.98
Neigh   | 0.93788    | 0.93961    | 0.94243    |   0.2 | 10.31
Comm    | 1.1211     | 2.975      | 4.759      |  71.7 | 32.65
Output  | 4.2915e-05 | 0.00048892 | 0.002619   |   0.0 |  0.01
Modify  | 0.31574    | 0.43724    | 0.56844    |  13.6 |  4.80
Other   |            | 0.06975    |            |       |  0.77

Nlocal:        1034.67 ave        1276 max         722 min
Histogram: 1 0 0 1 1 1 0 0 0 2
Nghost:        4839.33 ave        5320 max        4556 min
Histogram: 2 1 0 1 0 0 1 0 0 1
Neighs:        29498.8 ave       37764 max       17443 min
Histogram: 1 0 0 0 1 1 1 0 0 2

Total # of neighbors = 176993
Ave neighs/atom = 28.510470
Ave special neighs/atom = 1.9793814
Neighbor list builds = 355
Dangerous builds = 0

if "${myDensity} > 1.0" then "jump SELF break"

next a
jump SELF loop
variable a loop 1000
change_box all x scale 0.95 y scale 0.95 z scale 0.95 remap
Changing box ...
  orthogonal box = (510.06585 505.33247 505.33247) to (689.93415 694.66753 694.66753)
  orthogonal box = (510.06585 510.06585 505.33247) to (689.93415 689.93415 694.66753)
  orthogonal box = (510.06585 510.06585 510.06585) to (689.93415 689.93415 689.93415)
run 8000
Per MPI rank memory allocation (min/avg/max) = 11.82 | 11.86 | 11.90 Mbytes
Step PotEng Temp Press KinEng Lx Ly Lz Pzz S/CPU Density 
 1294001    2744.6308    381.48186    442.20125    7058.1346     179.8683     179.8683     179.8683    448.45512            0   0.19877804 
 1302001    522.12538    373.59933    -7.391488    6912.2929     179.8683     179.8683     179.8683   -14.178568    899.97256   0.19877804 
Loop time of 8.88927 on 6 procs for 8000 steps with 6208 atoms

Performance: 777.566 ns/day, 0.031 hours/ns, 899.961 timesteps/s
99.4% CPU use with 6 MPI tasks x no OpenMP threads

MPI task timing breakdown:
Section |  min time  |  avg time  |  max time  |%varavg| %total
---------------------------------------------------------------
Pair    | 2.932      | 4.8712     | 6.0928     |  49.6 | 54.80
Bond    | 0.062425   | 0.089033   | 0.10679    |   5.2 |  1.00
Neigh   | 0.89649    | 0.89835    | 0.90044    |   0.1 | 10.11
Comm    | 1.2402     | 2.5313     | 4.6012     |  73.2 | 28.48
Output  | 0.0023408  | 0.0025484  | 0.002826   |   0.3 |  0.03
Modify  | 0.30791    | 0.43755    | 0.51791    |  11.3 |  4.92
Other   |            | 0.05933    |            |       |  0.67

Nlocal:        1034.67 ave        1219 max         786 min
Histogram: 1 0 1 1 0 0 0 1 0 2
Nghost:        5158.33 ave        5276 max        4918 min
Histogram: 1 0 0 0 0 2 0 0 0 3
Neighs:        32029.3 ave       39013 max       21888 min
Histogram: 1 0 1 0 0 1 0 1 0 2

Total # of neighbors = 192176
Ave neighs/atom = 30.956186
Ave special neighs/atom = 1.9793814
Neighbor list builds = 348
Dangerous builds = 0

if "${myDensity} > 1.0" then "jump SELF break"

next a
jump SELF loop
variable a loop 1000
change_box all x scale 0.95 y scale 0.95 z scale 0.95 remap
Changing box ...
  orthogonal box = (514.56256 510.06585 510.06585) to (685.43744 689.93415 689.93415)
  orthogonal box = (514.56256 514.56256 510.06585) to (685.43744 685.43744 689.93415)
  orthogonal box = (514.56256 514.56256 514.56256) to (685.43744 685.43744 685.43744)
run 8000
Per MPI rank memory allocation (min/avg/max) = 11.83 | 11.86 | 11.91 Mbytes
Step PotEng Temp Press KinEng Lx Ly Lz Pzz S/CPU Density 
 1302001    2541.2335    373.59933    503.76759    6912.2929    170.87489    170.87489    170.87489    483.80348            0   0.23184492 
 1310001    382.12467    371.16166    8.9623293    6867.1914    170.87489    170.87489    170.87489    11.471466    860.17003   0.23184492 
Loop time of 9.30349 on 6 procs for 8000 steps with 6208 atoms

Performance: 742.947 ns/day, 0.032 hours/ns, 859.892 timesteps/s
99.5% CPU use with 6 MPI tasks x no OpenMP threads

MPI task timing breakdown:
Section |  min time  |  avg time  |  max time  |%varavg| %total
---------------------------------------------------------------
Pair    | 3.9895     | 5.449      | 6.3762     |  39.2 | 58.57
Bond    | 0.067763   | 0.089368   | 0.10405    |   4.3 |  0.96
Neigh   | 0.94029    | 0.94131    | 0.94231    |   0.1 | 10.12
Comm    | 1.3319     | 2.3226     | 3.8801     |  63.5 | 24.96
Output  | 3.7909e-05 | 0.00055277 | 0.003057   |   0.0 |  0.01
Modify  | 0.33446    | 0.43859    | 0.50724    |   9.1 |  4.71
Other   |            | 0.06211    |            |       |  0.67

Nlocal:        1034.67 ave        1180 max         834 min
Histogram: 1 0 1 1 0 0 0 0 1 2
Nghost:        5369.17 ave        5542 max        5073 min
Histogram: 1 0 0 0 0 1 1 1 0 2
Neighs:        36315.7 ave       41655 max       27289 min
Histogram: 1 1 0 0 0 0 1 0 1 2

Total # of neighbors = 217894
Ave neighs/atom = 35.098905
Ave special neighs/atom = 1.9793814
Neighbor list builds = 343
Dangerous builds = 0

if "${myDensity} > 1.0" then "jump SELF break"

next a
jump SELF loop
variable a loop 1000
change_box all x scale 0.95 y scale 0.95 z scale 0.95 remap
Changing box ...
  orthogonal box = (518.83443 514.56256 514.56256) to (681.16557 685.43744 685.43744)
  orthogonal box = (518.83443 518.83443 514.56256) to (681.16557 681.16557 685.43744)
  orthogonal box = (518.83443 518.83443 518.83443) to (681.16557 681.16557 681.16557)
run 8000
Per MPI rank memory allocation (min/avg/max) = 11.83 | 11.87 | 11.91 Mbytes
Step PotEng Temp Press KinEng Lx Ly Lz Pzz S/CPU Density 
 1310001    2632.6065    371.16166    615.83437    6867.1914    162.33115    162.33115    162.33115    624.61185            0   0.27041251 
 1318001    304.14952    376.12433   -10.302935    6959.0101    162.33115    162.33115    162.33115   -8.3167038    777.97038   0.27041251 
Loop time of 10.284 on 6 procs for 8000 steps with 6208 atoms

Performance: 672.111 ns/day, 0.036 hours/ns, 777.907 timesteps/s
99.5% CPU use with 6 MPI tasks x no OpenMP threads

MPI task timing breakdown:
Section |  min time  |  avg time  |  max time  |%varavg| %total
---------------------------------------------------------------
Pair    | 4.3484     | 5.8323     | 7.3236     |  39.2 | 56.71
Bond    | 0.07828    | 0.090805   | 0.10573    |   3.1 |  0.88
Neigh   | 1.0715     | 1.0725     | 1.0734     |   0.1 | 10.43
Comm    | 1.2417     | 2.7914     | 4.3265     |  58.9 | 27.14
Output  | 4.2915e-05 | 0.00019995 | 0.00090003 |   0.0 |  0.00
Modify  | 0.38806    | 0.43868    | 0.50426    |   6.0 |  4.27
Other   |            | 0.05814    |            |       |  0.57

Nlocal:        1034.67 ave        1269 max         846 min
Histogram: 1 0 1 1 1 0 1 0 0 1
Nghost:        6041.83 ave        6175 max        5887 min
Histogram: 1 1 0 0 1 0 1 0 0 2
Neighs:        38395.0 ave       53655 max       25515 min
Histogram: 1 0 1 0 2 1 0 0 0 1

Total # of neighbors = 230370
Ave neighs/atom = 37.108570
Ave special neighs/atom = 1.9793814
Neighbor list builds = 348
Dangerous builds = 0

if "${myDensity} > 1.0" then "jump SELF break"

next a
jump SELF loop
variable a loop 1000
change_box all x scale 0.95 y scale 0.95 z scale 0.95 remap
Changing box ...
  orthogonal box = (522.89271 518.83443 518.83443) to (677.10729 681.16557 681.16557)
  orthogonal box = (522.89271 522.89271 518.83443) to (677.10729 677.10729 681.16557)
  orthogonal box = (522.89271 522.89271 522.89271) to (677.10729 677.10729 677.10729)
run 8000
Per MPI rank memory allocation (min/avg/max) = 11.84 | 11.88 | 11.92 Mbytes
Step PotEng Temp Press KinEng Lx Ly Lz Pzz S/CPU Density 
 1318001    2358.2718    376.12433    699.55264    6959.0101    154.21459    154.21459    154.21459    700.56575            0   0.31539584 
 1326001    350.96718    373.87033   -8.4331874    6917.3069    154.21459    154.21459    154.21459   -1.6541071    632.15975   0.31539584 
Loop time of 12.6569 on 6 procs for 8000 steps with 6208 atoms

Performance: 546.104 ns/day, 0.044 hours/ns, 632.065 timesteps/s
99.5% CPU use with 6 MPI tasks x no OpenMP threads

MPI task timing breakdown:
Section |  min time  |  avg time  |  max time  |%varavg| %total
---------------------------------------------------------------
Pair    | 4.7822     | 6.4279     | 9.2627     |  57.4 | 50.79
Bond    | 0.076607   | 0.09037    | 0.11464    |   4.4 |  0.71
Neigh   | 1.3203     | 1.3222     | 1.3246     |   0.1 | 10.45
Comm    | 1.3626     | 4.304      | 6.0124     |  73.1 | 34.00
Output  | 4.0054e-05 | 0.00037022 | 0.001951   |   0.0 |  0.00
Modify  | 0.38378    | 0.43925    | 0.55485    |   9.3 |  3.47
Other   |            | 0.07283    |            |       |  0.58

Nlocal:        1034.67 ave        1263 max         880 min
Histogram: 2 1 0 0 0 1 1 0 0 1
Nghost:        6819.00 ave        7115 max        6621 min
Histogram: 1 1 1 1 0 0 1 0 0 1
Neighs:        42838.7 ave       59886 max       33064 min
Histogram: 2 0 1 0 1 1 0 0 0 1

Total # of neighbors = 257032
Ave neighs/atom = 41.403351
Ave special neighs/atom = 1.9793814
Neighbor list builds = 345
Dangerous builds = 0

if "${myDensity} > 1.0" then "jump SELF break"

next a
jump SELF loop
variable a loop 1000
change_box all x scale 0.95 y scale 0.95 z scale 0.95 remap
Changing box ...
  orthogonal box = (526.74807 522.89271 522.89271) to (673.25193 677.10729 677.10729)
  orthogonal box = (526.74807 526.74807 522.89271) to (673.25193 673.25193 677.10729)
  orthogonal box = (526.74807 526.74807 526.74807) to (673.25193 673.25193 673.25193)
run 8000
Per MPI rank memory allocation (min/avg/max) = 11.85 | 11.88 | 11.93 Mbytes
Step PotEng Temp Press KinEng Lx Ly Lz Pzz S/CPU Density 
 1326001    2449.0565    373.87033    820.73057    6917.3069    146.50386    146.50386    146.50386    830.95091            0   0.36786218 
 1334001    181.75887    377.56042    2.0719566    6985.5805    146.50386    146.50386    146.50386     12.10179    649.92577   0.36786218 
Loop time of 12.3118 on 6 procs for 8000 steps with 6208 atoms

Performance: 561.414 ns/day, 0.043 hours/ns, 649.785 timesteps/s
98.8% CPU use with 6 MPI tasks x no OpenMP threads

MPI task timing breakdown:
Section |  min time  |  avg time  |  max time  |%varavg| %total
---------------------------------------------------------------
Pair    | 6.3171     | 7.0152     | 8.806      |  31.3 | 56.98
Bond    | 0.085251   | 0.091014   | 0.10327    |   2.0 |  0.74
Neigh   | 1.3207     | 1.322      | 1.3242     |   0.1 | 10.74
Comm    | 1.5282     | 3.3504     | 4.0659     |  46.3 | 27.21
Output  | 4.3869e-05 | 0.00049591 | 0.002713   |   0.0 |  0.00
Modify  | 0.40481    | 0.43951    | 0.49696    |   4.6 |  3.57
Other   |            | 0.09313    |            |       |  0.76

Nlocal:        1034.67 ave        1141 max         920 min
Histogram: 1 0 2 0 0 0 1 0 0 2
Nghost:        7436.33 ave        7674 max        7241 min
Histogram: 1 2 0 0 0 1 0 0 1 1
Neighs:        46826.3 ave       56606 max       35713 min
Histogram: 1 0 1 0 1 0 0 1 1 1

Total # of neighbors = 280958
Ave neighs/atom = 45.257410
Ave special neighs/atom = 1.9793814
Neighbor list builds = 357
Dangerous builds = 0

if "${myDensity} > 1.0" then "jump SELF break"

next a
jump SELF loop
variable a loop 1000
change_box all x scale 0.95 y scale 0.95 z scale 0.95 remap
Changing box ...
  orthogonal box = (530.41067 526.74807 526.74807) to (669.58933 673.25193 673.25193)
  orthogonal box = (530.41067 530.41067 526.74807) to (669.58933 669.58933 673.25193)
  orthogonal box = (530.41067 530.41067 530.41067) to (669.58933 669.58933 669.58933)
run 8000
Per MPI rank memory allocation (min/avg/max) = 11.86 | 11.89 | 11.94 Mbytes
Step PotEng Temp Press KinEng Lx Ly Lz Pzz S/CPU Density 
 1334001    2372.8831    377.56042    977.96578    6985.5805    139.17867    139.17867    139.17867    982.21046            0   0.42905634 
 1342001   -51.246221    368.93864    11.341508    6826.0615    139.17867    139.17867    139.17867     1.867808    651.18645   0.42905634 
Loop time of 12.2874 on 6 procs for 8000 steps with 6208 atoms

Performance: 562.528 ns/day, 0.043 hours/ns, 651.074 timesteps/s
95.8% CPU use with 6 MPI tasks x no OpenMP threads

MPI task timing breakdown:
Section |  min time  |  avg time  |  max time  |%varavg| %total
---------------------------------------------------------------
Pair    | 6.8624     | 7.7967     | 8.4732     |  18.9 | 63.45
Bond    | 0.084763   | 0.093011   | 0.099775   |   1.5 |  0.76
Neigh   | 1.302      | 1.3026     | 1.3036     |   0.0 | 10.60
Comm    | 1.7777     | 2.47       | 3.4629     |  35.2 | 20.10
Output  | 4.6968e-05 | 0.00039999 | 0.0021439  |   0.0 |  0.00
Modify  | 0.40481    | 0.44023    | 0.47538    |   3.3 |  3.58
Other   |            | 0.1844     |            |       |  1.50

Nlocal:        1034.67 ave        1117 max         935 min
Histogram: 1 0 0 1 0 2 0 1 0 1
Nghost:        8091.83 ave        8180 max        8018 min
Histogram: 2 0 1 0 0 0 1 0 1 1
Neighs:        51818.0 ave       57136 max       43041 min
Histogram: 1 0 0 1 0 1 0 0 1 2

Total # of neighbors = 310908
Ave neighs/atom = 50.081830
Ave special neighs/atom = 1.9793814
Neighbor list builds = 348
Dangerous builds = 0

if "${myDensity} > 1.0" then "jump SELF break"

next a
jump SELF loop
variable a loop 1000
change_box all x scale 0.95 y scale 0.95 z scale 0.95 remap
Changing box ...
  orthogonal box = (533.89013 530.41067 530.41067) to (666.10987 669.58933 669.58933)
  orthogonal box = (533.89013 533.89013 530.41067) to (666.10987 666.10987 669.58933)
  orthogonal box = (533.89013 533.89013 533.89013) to (666.10987 666.10987 666.10987)
run 8000
Per MPI rank memory allocation (min/avg/max) = 11.87 | 11.90 | 11.94 Mbytes
Step PotEng Temp Press KinEng Lx Ly Lz Pzz S/CPU Density 
 1342001    2227.3699    368.93864    1160.2618    6826.0615    132.21973    132.21973    132.21973    1146.6354            0    0.5004302 
 1350001   -232.20573    372.84595   -9.2928048    6898.3539    132.21973    132.21973    132.21973     -22.4778    587.11209    0.5004302 
Loop time of 13.6278 on 6 procs for 8000 steps with 6208 atoms

Performance: 507.200 ns/day, 0.047 hours/ns, 587.037 timesteps/s
95.8% CPU use with 6 MPI tasks x no OpenMP threads

MPI task timing breakdown:
Section |  min time  |  avg time  |  max time  |%varavg| %total
---------------------------------------------------------------
Pair    | 8.2704     | 8.9088     | 9.7917     |  16.9 | 65.37
Bond    | 0.088945   | 0.094046   | 0.098856   |   1.2 |  0.69
Neigh   | 1.2491     | 1.2506     | 1.2528     |   0.1 |  9.18
Comm    | 1.8477     | 2.7322     | 3.3464     |  31.0 | 20.05
Output  | 3.9101e-05 | 0.00033943 | 0.001792   |   0.0 |  0.00
Modify  | 0.42115    | 0.44027    | 0.45911    |   2.3 |  3.23
Other   |            | 0.2016     |            |       |  1.48

Nlocal:        1034.67 ave        1111 max         961 min
Histogram: 1 1 0 1 0 1 0 0 0 2
Nghost:        8625.17 ave        8941 max        8309 min
Histogram: 1 0 0 1 0 2 1 0 0 1
Neighs:        58988.3 ave       68116 max       51560 min
Histogram: 1 1 1 0 0 1 0 1 0 1

Total # of neighbors = 353930
Ave neighs/atom = 57.011920
Ave special neighs/atom = 1.9793814
Neighbor list builds = 333
Dangerous builds = 0

if "${myDensity} > 1.0" then "jump SELF break"

next a
jump SELF loop
variable a loop 1000
change_box all x scale 0.95 y scale 0.95 z scale 0.95 remap
Changing box ...
  orthogonal box = (537.19563 533.89013 533.89013) to (662.80437 666.10987 666.10987)
  orthogonal box = (537.19563 537.19563 533.89013) to (662.80437 662.80437 666.10987)
  orthogonal box = (537.19563 537.19563 537.19563) to (662.80437 662.80437 662.80437)
run 8000
Per MPI rank memory allocation (min/avg/max) = 11.87 | 11.91 | 11.95 Mbytes
Step PotEng Temp Press KinEng Lx Ly Lz Pzz S/CPU Density 
 1350001    1969.2641    372.84595    1352.0326    6898.3539    125.60875    125.60875    125.60875    1335.9495            0   0.58367716 
 1358001   -433.52339    372.88236   0.72808654    6899.0276    125.60875    125.60875    125.60875   -13.082538    529.06876   0.58367716 
Loop time of 15.1221 on 6 procs for 8000 steps with 6208 atoms

Performance: 457.081 ns/day, 0.053 hours/ns, 529.029 timesteps/s
95.9% CPU use with 6 MPI tasks x no OpenMP threads

MPI task timing breakdown:
Section |  min time  |  avg time  |  max time  |%varavg| %total
---------------------------------------------------------------
Pair    | 9.0897     | 10.106     | 11.043     |  20.0 | 66.83
Bond    | 0.08655    | 0.092329   | 0.095721   |   1.2 |  0.61
Neigh   | 1.4629     | 1.4638     | 1.465      |   0.1 |  9.68
Comm    | 1.8631     | 2.8026     | 3.8002     |  38.5 | 18.53
Output  | 4.3869e-05 | 0.00023627 | 0.001178   |   0.0 |  0.00
Modify  | 0.41518    | 0.44091    | 0.47044    |   2.8 |  2.92
Other   |            | 0.2162     |            |       |  1.43

Nlocal:        1034.67 ave        1101 max         936 min
Histogram: 1 0 0 0 2 0 0 1 1 1
Nghost:        9532.67 ave        9586 max        9468 min
Histogram: 1 0 0 1 0 1 1 1 0 1
Neighs:        66748.0 ave       72713 max       56369 min
Histogram: 1 0 0 0 0 0 2 1 1 1

Total # of neighbors = 400488
Ave neighs/atom = 64.511598
Ave special neighs/atom = 1.9793814
Neighbor list builds = 348
Dangerous builds = 0

if "${myDensity} > 1.0" then "jump SELF break"

next a
jump SELF loop
variable a loop 1000
change_box all x scale 0.95 y scale 0.95 z scale 0.95 remap
Changing box ...
  orthogonal box = (540.33585 537.19563 537.19563) to (659.66415 662.80437 662.80437)
  orthogonal box = (540.33585 540.33585 537.19563) to (659.66415 659.66415 662.80437)
  orthogonal box = (540.33585 540.33585 540.33585) to (659.66415 659.66415 659.66415)
run 8000
Per MPI rank memory allocation (min/avg/max) = 11.89 | 11.92 | 11.96 Mbytes
Step PotEng Temp Press KinEng Lx Ly Lz Pzz S/CPU Density 
 1358001    1837.1709    372.88236    1599.7414    6899.0276    119.32831    119.32831    119.32831    1574.1372            0   0.68077231 
 1366001   -728.42814    378.32529    29.060172     6999.732    119.32831    119.32831    119.32831    10.080869    478.44209   0.68077231 
Loop time of 16.7227 on 6 procs for 8000 steps with 6208 atoms

Performance: 413.331 ns/day, 0.058 hours/ns, 478.392 timesteps/s
95.7% CPU use with 6 MPI tasks x no OpenMP threads

MPI task timing breakdown:
Section |  min time  |  avg time  |  max time  |%varavg| %total
---------------------------------------------------------------
Pair    | 10.855     | 11.615     | 12.207     |  13.2 | 69.46
Bond    | 0.088097   | 0.092992   | 0.098585   |   1.3 |  0.56
Neigh   | 1.656      | 1.657      | 1.6575     |   0.0 |  9.91
Comm    | 2.095      | 2.6826     | 3.4187     |  27.8 | 16.04
Output  | 4.3869e-05 | 0.00033255 | 0.0017669  |   0.0 |  0.00
Modify  | 0.42054    | 0.44077    | 0.45332    |   1.9 |  2.64
Other   |            | 0.2339     |            |       |  1.40

Nlocal:        1034.67 ave        1100 max        1000 min
Histogram: 2 1 0 1 1 0 0 0 0 1
Nghost:        10425.2 ave       10515 max       10376 min
Histogram: 2 1 0 1 0 0 1 0 0 1
Neighs:        77333.3 ave       85603 max       72320 min
Histogram: 1 1 1 0 2 0 0 0 0 1

Total # of neighbors = 464000
Ave neighs/atom = 74.742268
Ave special neighs/atom = 1.9793814
Neighbor list builds = 353
Dangerous builds = 0

if "${myDensity} > 1.0" then "jump SELF break"

next a
jump SELF loop
variable a loop 1000
change_box all x scale 0.95 y scale 0.95 z scale 0.95 remap
Changing box ...
  orthogonal box = (543.31905 540.33585 540.33585) to (656.68095 659.66415 659.66415)
  orthogonal box = (543.31905 543.31905 540.33585) to (656.68095 656.68095 659.66415)
  orthogonal box = (543.31905 543.31905 543.31905) to (656.68095 656.68095 656.68095)
run 8000
Per MPI rank memory allocation (min/avg/max) = 11.89 | 11.99 | 12.34 Mbytes
Step PotEng Temp Press KinEng Lx Ly Lz Pzz S/CPU Density 
 1366001    1705.1418    378.32529     1948.522     6999.732    113.36189    113.36189    113.36189    1901.6246            0   0.79401931 
 1374001   -1190.7968    385.08234    91.029239    7124.7502    113.36189    113.36189    113.36189    80.592461    420.02125   0.79401931 
Loop time of 19.0493 on 6 procs for 8000 steps with 6208 atoms

Performance: 362.848 ns/day, 0.066 hours/ns, 419.962 timesteps/s
96.0% CPU use with 6 MPI tasks x no OpenMP threads

MPI task timing breakdown:
Section |  min time  |  avg time  |  max time  |%varavg| %total
---------------------------------------------------------------
Pair    | 13.007     | 13.561     | 13.879     |   7.9 | 71.19
Bond    | 0.093987   | 0.097094   | 0.099533   |   0.6 |  0.51
Neigh   | 1.9038     | 1.9049     | 1.9056     |   0.0 | 10.00
Comm    | 2.4899     | 2.7955     | 3.3179     |  16.9 | 14.68
Output  | 4.3869e-05 | 0.00049071 | 0.0027039  |   0.0 |  0.00
Modify  | 0.42689    | 0.44038    | 0.45455    |   1.3 |  2.31
Other   |            | 0.25       |            |       |  1.31

Nlocal:        1034.67 ave        1050 max        1009 min
Histogram: 1 0 0 0 1 1 0 0 1 2
Nghost:        11409.7 ave       11485 max       11353 min
Histogram: 2 1 0 0 1 0 0 0 1 1
Neighs:        90097.3 ave       93057 max       85673 min
Histogram: 1 0 0 1 0 0 2 0 0 2

Total # of neighbors = 540584
Ave neighs/atom = 87.078608
Ave special neighs/atom = 1.9793814
Neighbor list builds = 355
Dangerous builds = 0

if "${myDensity} > 1.0" then "jump SELF break"

next a
jump SELF loop
variable a loop 1000
change_box all x scale 0.95 y scale 0.95 z scale 0.95 remap
Changing box ...
  orthogonal box = (546.15310 543.31905 543.31905) to (653.84690 656.68095 656.68095)
  orthogonal box = (546.15310 546.15310 543.31905) to (653.84690 653.84690 656.68095)
  orthogonal box = (546.15310 546.15310 546.15310) to (653.84690 653.84690 653.84690)
run 8000
Per MPI rank memory allocation (min/avg/max) = 12.29 | 12.33 | 12.37 Mbytes
Step PotEng Temp Press KinEng Lx Ly Lz Pzz S/CPU Density 
 1374001    1577.4421    385.08234    2471.0179    7124.7502     107.6938     107.6938     107.6938    2430.0602            0   0.92610504 
 1382001   -1799.8054    385.04554    219.51617    7124.0694     107.6938     107.6938     107.6938    196.26815    374.26147   0.92610504 
Loop time of 21.3761 on 6 procs for 8000 steps with 6208 atoms

Performance: 323.352 ns/day, 0.074 hours/ns, 374.250 timesteps/s
96.2% CPU use with 6 MPI tasks x no OpenMP threads

MPI task timing breakdown:
Section |  min time  |  avg time  |  max time  |%varavg| %total
---------------------------------------------------------------
Pair    | 15.659     | 15.798     | 16.055     |   3.5 | 73.90
Bond    | 0.096451   | 0.098386   | 0.10131    |   0.5 |  0.46
Neigh   | 1.9285     | 1.9304     | 1.9322     |   0.1 |  9.03
Comm    | 2.601      | 2.8449     | 3.0194     |   8.4 | 13.31
Output  | 4.1008e-05 | 0.00014659 | 0.00066495 |   0.0 |  0.00
Modify  | 0.43509    | 0.44023    | 0.4531     |   0.9 |  2.06
Other   |            | 0.2642     |            |       |  1.24

Nlocal:        1034.67 ave        1053 max        1013 min
Histogram: 2 0 0 0 0 1 0 0 2 1
Nghost:        12524.0 ave       12553 max       12466 min
Histogram: 1 0 0 1 0 0 0 1 0 3
Neighs:        105233.0 ave      107069 max      101255 min
Histogram: 1 0 0 0 1 0 0 0 2 2

Total # of neighbors = 631399
Ave neighs/atom = 101.70731
Ave special neighs/atom = 1.9793814
Neighbor list builds = 353
Dangerous builds = 0

if "${myDensity} > 1.0" then "jump SELF break"

next a
jump SELF loop
variable a loop 1000
change_box all x scale 0.95 y scale 0.95 z scale 0.95 remap
Changing box ...
  orthogonal box = (548.84545 546.15310 546.15310) to (651.15455 653.84690 653.84690)
  orthogonal box = (548.84545 548.84545 546.15310) to (651.15455 651.15455 653.84690)
  orthogonal box = (548.84545 548.84545 548.84545) to (651.15455 651.15455 651.15455)
run 8000
Per MPI rank memory allocation (min/avg/max) = 12.31 | 12.34 | 12.38 Mbytes
Step PotEng Temp Press KinEng Lx Ly Lz Pzz S/CPU Density 
 1382001    1476.5156    385.04554    3202.2325    7124.0694    102.30911    102.30911    102.30911     3184.805            0    1.0801633 
 1390001   -2516.2075    383.49192    569.46855    7095.3246    102.30911    102.30911    102.30911    555.39789    323.92921    1.0801633 
Loop time of 24.6987 on 6 procs for 8000 steps with 6208 atoms

Performance: 279.852 ns/day, 0.086 hours/ns, 323.903 timesteps/s
96.7% CPU use with 6 MPI tasks x no OpenMP threads

MPI task timing breakdown:
Section |  min time  |  avg time  |  max time  |%varavg| %total
---------------------------------------------------------------
Pair    | 17.974     | 18.455     | 18.949     |   8.2 | 74.72
Bond    | 0.091425   | 0.0945     | 0.098951   |   1.0 |  0.38
Neigh   | 2.3415     | 2.3437     | 2.346      |   0.1 |  9.49
Comm    | 2.6247     | 3.0857     | 3.5757     |  19.8 | 12.49
Output  | 4.2915e-05 | 0.00037452 | 0.0020211  |   0.0 |  0.00
Modify  | 0.43686    | 0.44082    | 0.45027    |   0.7 |  1.78
Other   |            | 0.2791     |            |       |  1.13

Nlocal:        1034.67 ave        1046 max        1017 min
Histogram: 1 0 0 0 0 1 2 0 1 1
Nghost:        13728.3 ave       13780 max       13679 min
Histogram: 1 0 1 1 0 0 2 0 0 1
Neighs:        122886.0 ave      126467 max      119603 min
Histogram: 1 1 1 0 1 0 0 0 0 2

Total # of neighbors = 737314
Ave neighs/atom = 118.76836
Ave special neighs/atom = 1.9793814
Neighbor list builds = 358
Dangerous builds = 0

if "${myDensity} > 1.0" then "jump SELF break"
jump SELF break

####Replicate to form slab

replicate 1 1 7
Replicating atoms ...
  orthogonal box = (548.84545 548.84545 548.84545) to (651.15455 651.15455 1265.0092)
  1 by 1 by 6 MPI processor grid
  43456 atoms
  43008 bonds
Finding 1-2 1-3 1-4 neighbors ...
  special bond factors lj:    0        1        1       
  special bond factors coul:  0        1        1       
     2 = max # of 1-2 neighbors
     6 = max # of special neighbors
  special bonds CPU = 0.001 seconds
  replicate CPU = 0.004 seconds

run 1
Per MPI rank memory allocation (min/avg/max) = 26.62 | 26.65 | 26.69 Mbytes
Step PotEng Temp Press KinEng Lx Ly Lz Pzz S/CPU Density 
 1390001   -17613.452    383.43897    569.46855    49667.272    102.30911    102.30911    716.16376    555.39789            0    1.0801633 
 1390002   -17566.062    383.02317    569.70855    49613.413    102.30911    102.30911    716.16376    557.57691    48.393396    1.0801633 
Loop time of 0.0206986 on 6 procs for 1 steps with 43456 atoms

Performance: 41.742 ns/day, 0.575 hours/ns, 48.312 timesteps/s
99.8% CPU use with 6 MPI tasks x no OpenMP threads

MPI task timing breakdown:
Section |  min time  |  avg time  |  max time  |%varavg| %total
---------------------------------------------------------------
Pair    | 0.019261   | 0.019449   | 0.019587   |   0.1 | 93.96
Bond    | 0.00014997 | 0.0001537  | 0.00015807 |   0.0 |  0.74
Neigh   | 0          | 0          | 0          |   0.0 |  0.00
Comm    | 0.00037003 | 0.00049905 | 0.00069284 |   0.0 |  2.41
Output  | 8.2016e-05 | 9.2308e-05 | 0.00012493 |   0.0 |  0.45
Modify  | 0.00038576 | 0.00039061 | 0.00039697 |   0.0 |  1.89
Other   |            | 0.0001142  |            |       |  0.55

Nlocal:        7242.67 ave        7259 max        7231 min
Histogram: 1 0 2 1 0 0 0 1 0 1
Nghost:        29260.2 ave       29305 max       29215 min
Histogram: 1 1 0 0 1 0 1 1 0 1
Neighs:        860200.0 ave      866768 max      853358 min
Histogram: 1 0 2 0 0 0 0 1 1 1

Total # of neighbors = 5161198
Ave neighs/atom = 118.76836
Ave special neighs/atom = 1.9793814
Neighbor list builds = 0
Dangerous builds = 0

###Delete replicated atoms

group under molecule < 129
12416 atoms in group under
group over molecule  > 192
24832 atoms in group over
group replica union under over
37248 atoms in group replica
delete_atoms group replica
WARNING: Ignoring 'compress yes' for molecular system (../delete_atoms.cpp:125)
Deleted 37248 atoms, new total = 6208

###Run simulation

fix           fixcentro all recenter INIT INIT INIT
fix           fxbal  all balance 1000 1.05 rcb

compute densidad all chunk/atom bin/1d z lower 0.01 units reduced
fix 3 all ave/chunk 1000 70 100000 densidad density/mass file den-$d-$T.profile
fix 3 all ave/chunk 1000 70 100000 densidad density/mass file den-TIA_WT-$T.profile
fix 3 all ave/chunk 1000 70 100000 densidad density/mass file den-TIA_WT-370.profile

compute  rad all gyration
variable t equal step
variable r equal c_rad
fix      radfile all print 10000 "$t $r" file rad-$d-$T.dat screen no
fix      radfile all print 10000 "$t $r" file rad-TIA_WT-$T.dat screen no
fix      radfile all print 10000 "$t $r" file rad-TIA_WT-370.dat screen no

compute	msd all msd com yes
fix	msd all ave/time 1 1 10000 c_msd[4] file mds-$d-$T.dat
fix	msd all ave/time 1 1 10000 c_msd[4] file mds-TIA_WT-$T.dat
fix	msd all ave/time 1 1 10000 c_msd[4] file mds-TIA_WT-370.dat

run 10000000
Per MPI rank memory allocation (min/avg/max) = 28.86 | 29.13 | 30.04 Mbytes
Step PotEng Temp Press KinEng Lx Ly Lz Pzz S/CPU Density 
 1390002   -1872.4633    383.05974    76.572612    7087.3283    102.30911    102.30911    716.16376    75.419257            0   0.15430905 
 2000000    174.19917    376.68657    6.3498749    6969.4127    102.30911    102.30911    716.16376     3.106669    694.85261   0.15430905 
 3000000    141.73043     366.6374   -2.8401186    6783.4841    102.30911    102.30911    716.16376   -6.3907115    742.69134   0.15430905 
 4000000    253.11687     367.8575  -0.69238559    6806.0583    102.30911    102.30911    716.16376   -7.1137493    766.05559   0.15430905 
 5000000    162.80207    372.86082   -11.674408     6898.629    102.30911    102.30911    716.16376   -7.7420536    776.34748   0.15430905 
 6000000    100.54084    369.69831    6.3276006    6840.1167    102.30911    102.30911    716.16376    5.6436476    766.54221   0.15430905 
 7000000    121.35727    365.47701   -0.4480805    6762.0148    102.30911    102.30911    716.16376    1.5336364    758.81867   0.15430905 
 8000000    153.99978    371.82886   0.59078355     6879.536    102.30911    102.30911    716.16376    7.0894187    722.53927   0.15430905 
 9000000   -21.720124    370.82405   0.83454716    6860.9451    102.30911    102.30911    716.16376    1.5777083    719.49898   0.15430905 
10000000     201.9682    367.58414   -2.0629938    6801.0005    102.30911    102.30911    716.16376   -2.4698325    740.04091   0.15430905 
11000000    213.81753    374.88021   0.52263349    6935.9917    102.30911    102.30911    716.16376   -4.2478521    764.93494   0.15430905 
11390002    204.18975    369.54972    2.9763334    6837.3675    102.30911    102.30911    716.16376  -0.62707172    753.42916   0.15430905 
Loop time of 13390.3 on 6 procs for 10000000 steps with 6208 atoms

Performance: 645.244 ns/day, 0.037 hours/ns, 746.810 timesteps/s
99.3% CPU use with 6 MPI tasks x no OpenMP threads

MPI task timing breakdown:
Section |  min time  |  avg time  |  max time  |%varavg| %total
---------------------------------------------------------------
Pair    | 6028.2     | 8212.4     | 8976.7     |1114.0 | 61.33
Bond    | 109.94     | 112.43     | 116.28     |  18.4 |  0.84
Neigh   | 1292.9     | 1305       | 1318.8     |  24.2 |  9.75
Comm    | 2022.8     | 2487.8     | 4286.4     |1622.8 | 18.58
Output  | 0.25366    | 0.29725    | 0.45224    |  12.8 |  0.00
Modify  | 814.73     | 1119.6     | 1599.2     | 912.4 |  8.36
Other   |            | 152.8      |            |       |  1.14

Nlocal:        1034.67 ave        1059 max        1009 min
Histogram: 2 0 0 0 1 1 0 0 0 2
Nghost:        5555.83 ave        7112 max        4698 min
Histogram: 1 1 1 1 1 0 0 0 0 1
Neighs:        38490.7 ave       45106 max       25003 min
Histogram: 1 0 0 0 0 1 1 0 1 2

Total # of neighbors = 230944
Ave neighs/atom = 37.201031
Ave special neighs/atom = 1.9793814
Neighbor list builds = 403521
Dangerous builds = 0

write_data data$d-$T.out
write_data dataTIA_WT-$T.out
write_data dataTIA_WT-370.out
System init for write_data ...

shell cd ..

clear

next x

jump SELF loopT
variable x loop 5

variable T equal 340+10*$x
variable T equal 340+10*4

units       real
dimension   3
boundary    p p p
atom_style  full

shell cd $d/
shell cd TIA_WT/

read_data $d.config
read_data TIA_WT.config
Reading data file ...
  orthogonal box = (0.0000000 0.0000000 0.0000000) to (300.00000 300.00000 300.00000)
  1 by 2 by 3 MPI processor grid
  reading atoms ...
  97 atoms
  scanning bonds ...
  1 = max bonds/atom
  reading bonds ...
  96 bonds
Finding 1-2 1-3 1-4 neighbors ...
  special bond factors lj:    0        0        0       
  special bond factors coul:  0        0        0       
     2 = max # of 1-2 neighbors
     2 = max # of 1-3 neighbors
     4 = max # of 1-4 neighbors
     6 = max # of special neighbors
  special bonds CPU = 0.000 seconds
  read_data CPU = 0.022 seconds

log log.$T
log log.380
